%chk=1sy8.chk
%nprocshared=16
%mem=32GB
#p  ub3lyp genecp scrf=(cpcm,solvent=thf) nosymm 
empiricaldispersion=gd3bj pop=hirshfeld
 
title

0  1
O           1.92100        -6.39000        -4.64800
C           2.42100        -7.37500        -3.73400
C           3.01500        -6.73900        -2.44900
O           2.32100        -5.51900        -2.12500
C           3.09500        -7.63100        -1.18200
O           4.50600        -7.71500        -0.81300
C           2.20800        -6.83700        -0.24100
C           2.21700        -5.39200        -0.71500
N           1.07300        -4.50400        -0.42000
C           1.32000        -3.15500        -0.27000
O           2.43200        -2.65800        -0.22400
N           0.19700        -2.35200        -0.22998
C          -1.11200        -2.76500        -0.32001
O          -2.05000        -1.99000        -0.28500
C          -1.27300        -4.19100        -0.47000
C          -2.57100        -4.90900        -0.72400
C          -0.20100        -5.00600        -0.52000
H           3.17982        -7.99297        -4.21543
H           1.58937        -8.01528        -3.43741
H           4.04033        -6.44806        -2.68605
H           2.68839        -8.63012        -1.34057
H           1.21756        -7.27422        -0.29979
H           2.52240        -6.88862         0.80006
H           3.13501        -4.93011        -0.32305
H           0.39783        -1.30577        -0.10571
H          -3.39826        -4.20242        -0.64317
H          -2.56961        -5.34215        -1.72357
H          -2.71230        -5.68830         0.02590
H          -0.36446        -6.05541        -0.68097
P           4.94500        -8.19400         0.68400
O           6.22900        -8.92700         0.66800
O           3.89800        -9.00500         1.34500
O           5.08700        -6.69300         1.33600
C           6.21800        -5.90100         0.87500
C           6.36400        -4.48800         1.48300
O           5.17399        -3.69699         1.43400
C           6.80000        -4.59600         2.94000
O           8.07500        -3.93200         3.14100
C           5.62399        -4.07900         3.73301
C           4.94095        -3.16998         2.74404
N           3.51500        -3.01300         2.96001
C           2.61100        -4.05200         2.88000
N           1.36000        -3.67700         2.96000
C           1.43100        -2.29000         3.10000
C           0.39901        -1.33103         3.22998
O          -0.79098        -1.58897         3.22307
N           0.91900        -0.03100         3.34998
C           2.26200         0.29000         3.34999
N           2.60100         1.62400         3.43800
N           3.23300        -0.61100         3.22000
C           2.75100        -1.87700         3.10000
H           6.12566        -5.77854        -0.20358
H           7.13865        -6.45502         1.06738
H           7.15190        -3.96191         0.94583
H           6.93705        -5.64627         3.21007
H           4.97971        -4.92383         3.97612
H           5.89898        -3.57303         4.64230
H           5.40456        -2.18182         2.82154
H           2.93234        -5.07693         2.74805
H           0.20450         0.76102         3.44401
H           1.88369         2.34888         3.58299
H           3.55642         1.87913         3.64251
P           8.71400        -3.90800         4.63900
O          10.18600        -3.76400         4.59700
O           8.33300        -5.09300         5.43700
O           7.98000        -2.54500         5.17200
C           8.35100        -1.32700         4.48100
C           7.79500        -0.02099         4.97699
O           6.38295         0.06193         4.82604
C           8.25700         0.20701         6.40200
O           8.90400         1.50200         6.53800
C           6.96501         0.00301         7.09700
C           5.88202         0.35102         6.11000
N           4.61501        -0.37101         6.34000
C           4.51900        -1.73500         6.26000
N           3.29800        -2.17400         6.33000
C           2.54000        -1.02600         6.48000
C           1.15200        -0.81300         6.61000
N           0.28000        -1.83600         6.61700
N           0.73000         0.45400         6.73000
C           1.62800         1.43500         6.72000
N           2.93600         1.36900         6.60000
C           3.32900         0.08700         6.48000
H           8.05389        -1.42436         3.43671
H           9.43938        -1.24692         4.50182
H           8.23551         0.76790         4.36869
H           8.96042        -0.56745         6.72023
H           6.91487        -1.05245         7.35856
H           6.90182         0.61495         7.98096
H           5.68448         1.42585         6.18704
H           5.39246        -2.36068         6.16018
H          -0.72699        -1.68800         6.71929
H           0.60997        -2.82486         6.57232
H           1.22163         2.43300         6.82423
P           9.39800         1.98200         8.01500
O          10.56200         2.89200         7.93200
O           9.69300         0.84500         8.91500
O           8.03700         2.77000         8.45600
C           7.65200         3.92400         7.66400
C           6.32800         4.54100         8.11900
O           5.26200         3.57800         8.03400
C           6.37200         5.20600         9.49200
O           5.85600         6.56400         9.37800
C           5.48500         4.25500        10.23100
C           4.52100         3.68300         9.24100
N           3.95200         2.41200         9.72000
C           2.59300         2.23000         9.87000
O           1.78400         3.13900         9.91000
N           2.17600         0.91500         9.91000
C           2.97300        -0.20300         9.82000
O           2.52500        -1.33400         9.86900
C           4.37900         0.08400         9.67000
C           5.40000        -1.01000         9.66500
C           4.82300         1.35600         9.62000
H           7.53958         3.62067         6.62284
H           8.43743         4.67864         7.72250
H           6.09602         5.33227         7.40599
H           7.38565         5.20306         9.89990
H           6.11459         3.47502        10.65791
H           4.95767         4.76155        11.02845
H           3.71231         4.40827         9.09343
H           1.10855         0.78067        10.01811
H           5.27486        -1.63534         8.78608
H           6.41739        -0.62748         9.73768
H           5.22577        -1.64389        10.53407
H           5.87614         1.57231         9.49665
P           6.03900         7.56300        10.64500
O           6.13500         8.98000        10.22800
O           7.18300         7.19800        11.51000
O           4.60900         7.20700        11.33200
C           3.42200         7.81600        10.75800
C           2.20100         7.54500        11.66500
O           1.77400         6.16500        11.61900
C           2.43000         8.01300        13.10700
O           1.37100         8.91800        13.54500
C           2.40500         6.66700        13.77900
C           1.51700         5.72700        12.95400
N           1.77900         4.27400        13.10000
C           0.78800         3.30700        13.25000
O          -0.39800         3.60100        13.29600
N           1.15200         2.00300        13.30000
C           2.43700         1.64400        13.19999
N           2.80100         0.29000        13.28300
C           3.47400         2.61800        13.05000
C           3.08600         3.92100        13.00000
H           3.23767         7.40468         9.76467
H           3.56886         8.89399        10.67886
H           1.37954         8.14073        11.26798
H           3.40741         8.48633        13.22770
H           3.43904         6.34108        13.82840
H           2.04732         6.72481        14.80206
H           0.46687         5.93104        13.18840
H           2.08833        -0.45092        13.39182
H           3.77061         0.02641        13.15273
H           4.51017         2.35111        12.93368
H           3.83197         4.67612        12.79914
P           1.35400         9.41800        15.10700
O           0.90700        10.82300        15.23200
O           2.65300         9.22900        15.79000
O           0.22100         8.36700        15.65900
C          -1.09400         8.50300        15.07100
C          -2.22600         7.69200        15.74000
O          -2.15100         6.29500        15.40600
C          -2.36200         7.84300        17.25600
O          -3.69400         8.15200        17.68800
C          -1.94900         6.48100        17.75700
C          -2.14300         5.50400        16.59700
N          -1.07300         4.50400        16.48000
C           0.25300         4.83300        16.40000
N           1.04900         3.80800        16.47000
C           0.19100         2.73300        16.62000
C           0.41700         1.34700        16.75000
N           1.65400         0.82300        16.73300
N          -0.65800         0.55400        16.87000
C          -1.86800         1.10500        16.86000
N          -2.21000         2.37000        16.74000
C          -1.11200         3.13900        16.62000
H          -1.04409         8.21447        14.01920
H          -1.37717         9.55595        15.10928
H          -3.15203         8.06139        15.29903
H          -1.66110         8.60443        17.60839
H          -0.89497         6.53686        18.03052
H          -2.52618         6.16538        18.62499
H          -3.10317         4.98808        16.67895
H           0.59115         5.85368        16.26002
H           1.81628        -0.19725        16.80297
H           2.48828         1.41468        16.60680
H          -2.69170         0.40794        16.94262
O          -1.60200        -6.78400        21.39500
C          -2.26800        -7.65500        20.47200
C          -2.91800        -6.88800        19.28900
O          -2.23900        -5.64100        19.02900
C          -3.07300        -7.66800        17.95800
O          -4.49200        -7.66400        17.61200
C          -2.20800        -6.81300        17.05600
C          -2.20500        -5.40500        17.62700
N          -1.07300        -4.50400        17.32000
C          -1.32000        -3.15500        17.17000
O          -2.43200        -2.66000        17.12300
N          -0.19700        -2.35200        17.13000
C           1.11200        -2.76500        17.22000
O           2.05100        -1.99100        17.18500
C           1.27300        -4.19100        17.37000
C           2.56800        -4.91200        17.62600
C           0.20100        -5.00600        17.42000
H          -3.03039        -8.24370        20.98356
H          -1.52481        -8.33900        20.06013
H          -3.92780        -6.62035        19.60593
H          -2.69495        -8.68971        18.01234
H          -1.21547        -7.25104        17.05412
H          -2.55828        -6.79738        16.02461
H          -3.14207        -4.92474        17.31102
H          -0.39554        -1.31075        16.98380
H           2.70862        -5.69163        16.87628
H           3.39707        -4.20741        17.54651
H           2.56408        -5.34533        18.62552
H           0.36002        -6.05603        17.58621
P          -4.96600        -8.19300        16.14200
O          -6.24700        -8.92800        16.21300
O          -3.93200        -9.01900        15.48000
O          -5.12700        -6.71300        15.44600
C          -6.28400        -5.93400        15.86300
C          -6.43300        -4.53200        15.23100
O          -5.26300        -3.71700        15.35600
C          -6.76800        -4.67100        13.75000
O          -8.06000        -4.08800        13.44200
C          -5.56200        -4.10800        13.03600
C          -4.95400        -3.18600        14.06400
N          -3.51500        -3.01300        13.94000
C          -2.61100        -4.05200        14.02000
N          -1.36000        -3.67700        13.94000
C          -1.43100        -2.29000        13.80001
C          -0.39900        -1.33100        13.67000
O           0.79200        -1.58900        13.67799
N          -0.91900        -0.03100        13.55003
C          -2.26198         0.29000        13.54993
N          -2.60001         1.62500        13.48006
N          -3.23300        -0.61100        13.67998
C          -2.75100        -1.87700        13.80000
H          -6.22771        -5.79778        16.94251
H          -7.18855        -6.50548        15.64714
H          -7.26742        -4.02081        15.70877
H          -6.82809        -5.72942        13.48361
H          -4.88351        -4.93360        12.82238
H          -5.79928        -3.61602        12.11517
H          -5.42347        -2.20376        13.95430
H          -2.93294        -5.07791        14.14242
H          -0.20766         0.75512        13.43252
H          -1.86917         2.35123        13.50701
H          -3.51633         1.90030        13.81142
P          -8.54300        -4.04800        11.88400
O         -10.01700        -4.01200        11.77200
O          -7.99100        -5.16600        11.08800
O          -7.86400        -2.61400        11.48200
C          -8.35500        -1.46100        12.20600
C          -7.84500        -0.09700        11.82100
O          -6.44200         0.04800        12.02800
C          -8.26300         0.18600        10.39400
O          -8.89200         1.49100        10.27900
C          -6.95000        -0.00300         9.73900
C          -5.89700         0.34200        10.75900
N          -4.61500        -0.37100        10.56000
C          -4.51900        -1.73500        10.64000
N          -3.29800        -2.17400        10.57000
C          -2.54000        -1.02600        10.42000
C          -1.15200        -0.81300        10.29000
N          -0.28000        -1.83600        10.28300
N          -0.73000         0.45400        10.17000
C          -1.62800         1.43500        10.18000
N          -2.93600         1.36900        10.30000
C          -3.32900         0.08700        10.42000
H          -8.12050        -1.59874        13.26143
H          -9.44278        -1.44423        12.11651
H          -8.35158         0.62903        12.45532
H          -8.96163        -0.57046        10.02551
H          -6.88504        -1.05431         9.46615
H          -6.87349         0.62221         8.86747
H          -5.70326         1.41812        10.69254
H          -5.39942        -2.35197        10.70008
H           0.73540        -1.69356        10.19124
H          -0.61359        -2.80221        10.31115
H          -1.22168         2.43302        10.07568
P          -9.39200         1.98800         8.80900
O         -10.55700         2.89500         8.90600
O          -9.68700         0.86200         7.89600
O          -8.03300         2.78200         8.37700
C          -7.66200         3.94000         9.17000
C          -6.34500         4.57000         8.71099
O          -5.27300         3.61700         8.82601
C          -6.39200         5.20000         7.32100
O          -5.90400         6.57100         7.38800
C          -5.48400         4.24600         6.61300
C          -4.52600         3.69500         7.62200
N          -3.95200         2.41200         7.18000
C          -2.59300         2.23000         7.03000
O          -1.78400         3.14000         6.98800
N          -2.17600         0.91500         6.99001
C          -2.97300        -0.20300         7.08000
O          -2.52400        -1.33300         7.03197
C          -4.37900         0.08400         7.23000
C          -5.39700        -1.01100         7.18000
C          -4.82300         1.35600         7.28000
H          -7.54703         3.63874        10.21153
H          -8.45524         4.68623         9.10907
H          -6.12724         5.38048         9.40658
H          -7.40268         5.16421         6.90714
H          -6.09971         3.45482         6.18665
H          -4.95098         4.74593         5.81770
H          -3.71839         4.42337         7.75883
H          -1.10345         0.78162         6.88611
H          -6.41420        -0.62867         7.10207
H          -5.20547        -1.61801         6.29549
H          -5.28407        -1.66137         8.04401
H          -5.87717         1.57756         7.37660
P          -6.08300         7.51000         6.07200
O          -6.23100         8.94000         6.42400
O          -7.19600         7.07500         5.19900
O          -4.62900         7.17200         5.42700
C          -3.47000         7.82800         6.00600
C          -2.22600         7.57600         5.12300
O          -1.76900         6.21000         5.21100
C          -2.44100         8.00700         3.66700
O          -1.37700         8.89800         3.21200
C          -2.40500         6.64300         3.03500
C          -1.51900         5.73200         3.89200
N          -1.77900         4.27400         3.80000
C          -0.78800         3.30700         3.65000
O           0.39800         3.60300         3.58700
N          -1.15200         2.00300         3.59999
C          -2.43699         1.64400         3.70003
N          -2.80004         0.28901         3.62998
C          -3.47400         2.61800         3.84999
C          -3.08600         3.92100         3.90000
H          -3.28985         7.44298         7.01057
H          -3.65040         8.90242         6.06022
H          -1.42841         8.20175         5.52219
H          -3.41806         8.47512         3.52453
H          -3.43667         6.30874         2.98739
H          -2.04232         6.67780         2.01328
H          -0.46938         5.92682         3.64886
H          -2.07437        -0.43921         3.59612
H          -3.72448        -0.03393         3.91027
H          -4.51092         2.35179         3.96136
H          -3.82976         4.68212         4.08484
P          -1.36300         9.38000         1.64300
O          -0.92600        10.78600         1.50100
O          -2.65900         9.17300         0.96100
O          -0.22000         8.33400         1.10400
C           1.09600         8.50100         1.68200
C           2.23900         7.71100         1.00700
O           2.20100         6.32500         1.38300
C           2.34100         7.82500        -0.51500
O           3.65700         8.14200        -0.98900
C           1.93500         6.44500        -0.97000
C           2.14600         5.49800         0.21800
N           1.07300         4.50400         0.42000
C          -0.25300         4.83300         0.50000
N          -1.04900         3.80800         0.43000
C          -0.19100         2.73300         0.27998
C          -0.41700         1.34699         0.15006
N          -1.65800         0.83000         0.16298
N           0.65800         0.55400         0.02996
C           1.86800         1.10500         0.04001
N           2.21000         2.37000         0.16000
C           1.11200         3.13900         0.28000
H           1.05802         8.21664         2.73565
H           1.35483         9.55978         1.63718
H           3.15856         8.10755         1.43449
H           1.61997         8.56337        -0.87581
H           4.00623         8.85013        -0.44165
H           0.87940         6.47897        -1.24001
H           2.51440         6.11744        -1.83288
H           3.09747         4.96934         0.11781
H          -0.58867         5.85583         0.62116
H          -1.83518        -0.18397         0.08065
H          -2.46077         1.42801         0.30779
H           2.69174         0.40806        -0.04324
H          -1.45665        -5.95837        20.90607
H           1.75997        -5.59948        -4.10824
H          -3.74367         8.00796        18.63331
H          -6.24765        -9.88355        16.30531
H         -10.42933        -3.74671        10.94665
H         -10.42239         3.84013         9.00708
H          -5.45178         9.48447         6.55802
H           0.01008        10.99788         1.47960
H           7.05809        -8.44316         0.67856
H          10.74781        -4.51130         4.81496
H          11.45293         2.53592         7.96448
H           6.99576         9.38778        10.10800
H           1.55454        11.52894        15.29481

