%chk=2n5p_05_min.chk
%nprocshared=16
%mem=32GB
#p  ub3lyp genecp scrf=(cpcm,solvent=thf) nosymm 
empiricaldispersion=gd3bj pop=hirshfeld
 
title

0  1
O          20.92300        31.88800        10.92300
C          20.88200        31.17900         9.69000
C          21.45700        29.75000         9.75400
O          22.87900        29.82200         9.83700
C          20.97500        28.91000        10.94600
O          20.89800        27.53600        10.57900
C          22.06600        29.16700        11.97900
C          23.30400        29.35300        11.11000
N          24.26600        30.28100        11.74100
C          24.13400        31.61900        12.02900
N          25.16400        32.14400        12.65000
C          26.03800        31.04600        12.77900
C          27.33800        30.83700        13.30600
N          28.11300        31.75200        13.85100
N          27.91200        29.63300        13.26400
C          27.23900        28.63400        12.71900
N          26.03100        28.66500        12.18300
C          25.48900        29.91400        12.23600
H          21.43600        31.74500         8.94100
H          19.84200        31.12000         9.36800
H          21.18800        29.24300         8.82600
H          20.00400        29.25700        11.30200
H          21.84000        30.07100        12.54500
H          22.20000        28.33500        12.66600
H          23.76800        28.37700        10.96700
H          23.26200        32.19600        11.76700
H          27.78300        32.70200        13.94600
H          29.03800        31.50400        14.17000
H          27.73400        27.67500        12.71300
H          20.84200        32.82700        10.73900
P          20.38700        26.40300        11.58900
O          19.65200        25.38000        10.80800
O          19.71600        27.04000        12.74700
O          21.74000        25.74100        12.12400
C          22.67900        25.16500        11.22000
C          23.86500        24.46200        11.90100
O          24.72100        25.43900        12.48600
C          23.52200        23.42900        12.98300
O          24.41000        22.31600        12.84800
C          23.77300        24.21900        14.26000
C          24.95700        25.08600        13.84100
N          25.15800        26.29900        14.67000
C          26.39800        26.52400        15.28000
O          27.33200        25.72000        15.24800
N          26.55500        27.73400        15.91900
C          25.61300        28.73400        16.00400
O          25.92100        29.79300        16.55300
C          24.32700        28.41300        15.38500
C          23.18700        29.41300        15.43000
C          24.14900        27.22200        14.75100
H          23.06700        25.94400        10.56200
H          22.16300        24.42800        10.60400
H          24.42800        23.95700        11.11500
H          22.48300        23.10600        12.91100
H          22.89600        24.82100        14.49700
H          24.02700        23.58300        15.10700
H          25.84900        24.46000        13.86900
H          27.44800        27.91000        16.34500
H          22.98200        29.67800        16.46800
H          23.47600        30.31600        14.89200
H          22.28300        28.99700        14.98700
H          23.20300        27.01000        14.27600
P          24.31600        21.00100        13.75800
O          24.80300        19.85200        12.96100
O          22.96100        20.92000        14.34100
O          25.36000        21.21900        14.95600
C          26.76100        21.05000        14.75000
C          27.59400        21.08800        16.04100
O          27.73800        22.41800        16.52300
C          27.04700        20.20900        17.17900
O          28.12600        19.43700        17.70000
C          26.53100        21.24700        18.17100
C          27.47200        22.42100        17.91500
N          26.94700        23.75000        18.30600
C          25.68200        24.26500        18.17000
N          25.55400        25.50000        18.58000
C          26.83100        25.82100        19.06100
C          27.35100        27.01000        19.68800
O          26.78800        28.07500        19.94000
N          28.66200        26.89000        20.08700
C          29.40600        25.77600        19.91500
N          30.62200        25.81600        20.36800
N          28.99600        24.67200        19.29200
C          27.68300        24.74700        18.90700
H          27.12100        21.82200        14.06900
H          26.93300        20.07900        14.28500
H          28.59200        20.73000        15.78400
H          26.24500        19.55600        16.83200
H          25.50300        21.50900        17.92000
H          26.59600        20.90200        19.20100
H          28.40600        22.22800        18.44300
H          24.86600        23.71100        17.73100
H          29.07300        27.67400        20.56600
H          30.95300        26.63900        20.84100
H          31.23400        25.02200        20.24500
P          27.95100        18.29300        18.80200
O          28.88500        17.20100        18.44300
O          26.51700        17.98000        19.00800
O          28.47600        18.96200        20.14000
C          29.86200        19.18600        20.35900
C          30.10200        20.01000        21.62900
O          29.61500        21.32500        21.45800
C          29.49800        19.38800        22.89800
O          30.29800        19.62200        24.04400
C          28.27500        20.26200        23.06900
C          28.84700        21.60600        22.60200
N          27.81800        22.59500        22.26600
C          26.59200        22.35700        21.73100
N          25.78500        23.39100        21.73200
C          26.59600        24.41400        22.26700
C          26.34000        25.80100        22.56600
O          25.30200        26.44900        22.44000
N          27.43800        26.46900        23.06900
C          28.64000        25.88900        23.28800
N          29.59400        26.63600        23.75400
N          28.92000        24.61100        23.07000
C          27.85400        23.93000        22.55700
H          30.28400        19.72200        19.50800
H          30.37200        18.22700        20.45700
H          31.18100        20.08000        21.76800
H          29.23400        18.33500        22.78800
H          27.47700        19.90600        22.41900
H          27.93700        20.29600        24.10400
H          29.49900        22.00100        23.38200
H          26.27900        21.38300        21.38800
H          27.32300        27.44300        23.29000
H          29.42500        27.61300        23.93200
H          30.50300        26.23700        23.93700
P          31.42200        18.62300        24.54100
O          32.31200        18.27600        23.40800
O          30.77100        17.54400        25.31700
O          32.19400        19.58900        25.55000
C          33.01500        20.64900        25.05800
C          33.33200        21.76700        26.07300
O          32.37900        22.82100        25.97300
C          33.35700        21.29900        27.53200
O          34.43000        21.89500        28.26000
C          31.96300        21.69300        28.01500
C          31.58400        22.89300        27.14500
N          30.15500        22.96400        26.73500
C          29.32800        21.96200        26.27400
N          28.12600        22.36200        25.93500
C          28.16800        23.74200        26.20300
C          27.24500        24.81300        26.10300
N          26.00400        24.71100        25.67600
N          27.56300        26.05700        26.47000
C          28.79200        26.25500        26.91900
N          29.76700        25.36600        27.08900
C          29.39100        24.11200        26.69700
H          32.53500        21.10800        24.19200
H          33.95600        20.21400        24.72200
H          34.31000        22.17400        25.81400
H          33.47300        20.21600        27.57300
H          31.27700        20.86200        27.84800
H          31.95300        21.95900        29.06800
H          31.85500        23.80100        27.68300
H          29.64300        20.93300        26.19200
H          25.64300        23.81600        25.37800
H          25.41200        25.52400        25.65300
H          29.02500        27.26800        27.21100
P          34.83300        21.39100        29.73100
O          36.23100        21.80300        29.98600
O          34.49600        19.95900        29.87300
O          33.90500        22.23500        30.69800
C          34.06900        23.64600        30.77900
C          32.84400        24.34800        31.36000
O          31.73500        24.26200        30.47400
C          32.42300        23.80600        32.73300
O          32.32100        24.92600        33.59300
C          31.07200        23.18100        32.41900
C          30.59100        24.06500        31.29600
N          29.47100        23.48500        30.52100
C          29.25000        22.18500        30.14000
N          28.10700        21.98700        29.53200
C          27.51200        23.25800        29.53900
C          26.24700        23.73900        29.04200
O          25.36700        23.13900        28.41700
N          26.04300        25.08300        29.28800
C          26.96500        25.89500        29.85900
N          26.68200        27.15500        30.00500
N          28.15100        25.51200        30.30100
C          28.35800        24.17500        30.12500
H          34.24600        24.05400        29.78300
H          34.93700        23.86700        31.40100
H          33.09600        25.40400        31.46400
H          33.13100        23.07400        33.12200
H          31.21500        22.15500        32.07900
H          30.40400        23.21300        33.27700
H          30.29100        25.02500        31.71800
H          29.96000        21.39100        30.31500
H          25.18400        25.48600        28.95900
H          25.79400        27.51200        29.69200
H          27.35500        27.77500        30.43200
P          32.25900        24.83500        35.17800
O          33.49800        25.43700        35.72100
O          31.87500        23.46900        35.59600
O          31.03400        25.81100        35.45800
C          31.15800        27.20500        35.19600
C          29.81000        27.89500        34.98200
O          29.13000        27.36300        33.85100
C          28.90900        27.81200        36.21200
O          29.04700        28.99600        36.99500
C          27.52500        27.64400        35.58800
C          27.73900        27.30100        34.11200
N          27.22900        25.93900        33.76400
C          25.95000        25.81700        33.20700
O          25.19900        26.79000        33.10800
N          25.49500        24.62300        32.75700
C          26.27400        23.56600        32.88800
N          25.83500        22.45600        32.37200
C          27.55600        23.61000        33.49800
C          28.00300        24.81600        33.93500
H          31.75200        27.35700        34.29400
H          31.67700        27.67900        36.03000
H          29.99800        28.94900        34.77400
H          29.15900        26.92500        36.79600
H          26.97700        26.85800        36.10000
H          26.96500        28.57400        35.63400
H          27.24200        28.05300        33.50000
H          24.93700        22.43400        31.91100
H          26.40200        21.62100        32.41700
H          28.17900        22.73600        33.62000
H          28.97300        24.88700        34.39700
P          28.50700        29.09600        38.49700
O          28.91400        30.40900        39.05300
O          28.89500        27.86200        39.22400
O          26.92200        29.10000        38.36400
C          26.22600        30.19000        37.76700
C          24.72300        29.89400        37.69500
O          24.46600        28.71600        36.95800
C          24.10800        29.74700        39.09000
O          22.89800        30.48600        39.03800
C          23.86500        28.24300        39.19600
C          23.59400        27.91800        37.72500
N          23.82900        26.50000        37.34900
C          22.86400        25.84800        36.57100
O          21.76800        26.33900        36.28700
N          23.18600        24.59500        36.10600
C          24.37900        23.93900        36.32200
O          24.56100        22.85200        35.77900
C          25.33300        24.66000        37.16400
C          26.68500        24.05700        37.49600
C          25.03500        25.89700        37.63900
H          26.60500        30.37700        36.76300
H          26.38100        31.08900        38.36400
H          24.24700        30.72900        37.17800
H          24.77600        30.11200        39.87000
H          24.75700        27.74900        39.57800
H          23.00300        28.01700        39.82100
H          22.56900        28.21400        37.50300
H          22.50500        24.13100        35.53000
H          27.24700        23.90400        36.57600
H          27.25300        24.70900        38.16000
H          26.54700        23.08900        37.97500
H          25.77100        26.43000        38.22100
P          22.19200        31.12300        40.30100
O          21.26100        32.14200        39.77900
O          23.23300        31.55400        41.25700
O          21.32900        29.94100        40.94000
C          20.11100        29.53400        40.31700
C          19.62800        28.12800        40.70300
O          20.43100        27.16100        40.02500
C          19.67700        27.81300        42.21200
O          18.52000        27.10100        42.63400
C          20.90800        26.92300        42.25300
C          20.72500        26.14300        40.95500
N          21.87300        25.29400        40.53700
C          21.62200        24.27200        39.60700
O          20.54400        24.17400        39.01200
N          22.55700        23.33500        39.33900
C          23.69900        23.38800        39.99200
N          24.52800        22.42200        39.73300
C          24.03700        24.42000        40.90700
C          23.09100        25.35500        41.17100
H          20.23600        29.55500        39.23300
H          19.33400        30.25300        40.57900
H          18.60000        28.02000        40.35500
H          19.81400        28.70900        42.81800
H          18.69500        26.71800        43.49700
H          21.79900        27.55100        42.22500
H          20.91400        26.26800        43.12600
H          19.84700        25.50400        41.06100
H          24.26800        21.70100        39.08100
H          25.42000        22.38000        40.20400
H          24.99000        24.47100        41.41400
H          23.32300        26.13700        41.87500
O          21.36100        14.40500        34.87900
C          20.00700        14.07900        35.17600
C          18.97800        15.18100        34.84800
O          19.29900        16.35200        35.59200
C          18.86800        15.57600        33.36800
O          17.50600        15.86900        33.06600
C          19.77200        16.80300        33.29400
C          19.68700        17.39600        34.70700
N          20.95500        17.98000        35.22400
C          22.23800        17.48000        35.13800
N          23.13900        18.17300        35.78300
C          22.39500        19.21700        36.34700
C          22.79200        20.29200        37.21500
O          23.89700        20.51600        37.71100
N          21.76300        21.14600        37.54200
C          20.48000        20.95700        37.15900
N          19.61000        21.82900        37.59200
N          20.04400        19.94600        36.40300
C          21.06100        19.11100        36.00900
H          19.93700        13.85300        36.24000
H          19.74000        13.17700        34.62500
H          18.00500        14.81900        35.18300
H          19.23200        14.77600        32.72100
H          20.78800        16.48900        33.05800
H          19.43000        17.51300        32.54700
H          18.90300        18.15400        34.71400
H          22.49100        16.59300        34.58000
H          21.97900        21.93000        38.13500
H          19.91100        22.60000        38.16700
H          18.63500        21.73000        37.35000
H          21.47800        14.38600        33.92600
P          16.97600        16.24700        31.60600
O          15.69400        15.54000        31.38500
O          18.05400        16.04300        30.61100
O          16.63600        17.80700        31.67100
C          15.52000        18.26300        32.43900
C          15.23800        19.77300        32.37300
O          16.25000        20.48300        33.08000
C          15.13200        20.36300        30.95600
O          14.13900        21.38400        30.94200
C          16.54600        20.86600        30.77300
C          16.95800        21.31400        32.17600
N          18.40400        21.14800        32.41600
C          19.20300        20.14300        31.95000
N          20.44300        20.18600        32.36000
C          20.45900        21.35500        33.13900
C          21.44800        22.04300        33.87800
N          22.70400        21.65100        33.98400
N          21.17000        23.18400        34.50900
C          19.92700        23.64700        34.43500
N          18.88500        23.10900        33.80600
C          19.22500        21.95200        33.17100
H          15.67300        17.98600        33.48300
H          14.62400        17.75200        32.08600
H          14.29100        19.94000        32.88800
H          14.89000        19.58900        30.22700
H          17.15300        20.05200        30.38600
H          16.59300        21.70000        30.07400
H          16.65700        22.35100        32.32900
H          18.84500        19.34100        31.32400
H          23.01100        20.80800        33.52100
H          23.35900        22.20300        34.51400
H          19.73800        24.57400        34.95500
P          13.65700        22.14900        29.61400
O          12.28600        22.64000        29.87600
O          13.88800        21.30100        28.41800
O          14.62700        23.41000        29.50800
C          14.49400        24.50800        30.40500
C          15.73000        25.41300        30.39700
O          16.87900        24.68200        30.81800
C          16.05500        26.11600        29.06200
O          15.98400        27.52900        29.25700
C          17.47200        25.63000        28.77900
C          17.99500        25.23300        30.15100
N          19.12500        24.27700        30.09100
C          19.24000        23.10000        29.38900
N          20.41200        22.51800        29.49800
C          21.13100        23.39600        30.33100
C          22.48400        23.36000        30.83100
O          23.35300        22.50300        30.66500
N          22.82100        24.45700        31.59500
C          21.95500        25.44600        31.91800
N          22.41300        26.41800        32.65600
N          20.69800        25.52000        31.49700
C          20.34300        24.46500        30.70000
H          14.35900        24.13000        31.41900
H          13.61600        25.09400        30.13200
H          15.55900        26.19200        31.14200
H          15.37300        25.80600        28.27000
H          17.42100        24.75800        28.12600
H          18.09500        26.39200        28.32100
H          18.30000        26.13600        30.68200
H          18.43300        22.68500        28.80300
H          23.75900        24.49900        31.95500
H          23.36900        26.40100        32.97500
H          21.80100        27.17400        32.93000
P          16.30900        28.62900        28.13900
O          15.44500        29.80300        28.37600
O          16.34500        28.01900        26.78800
O          17.78500        29.10400        28.53100
C          17.97600        29.85400        29.73400
C          19.43500        30.17000        30.06600
O          20.11400        28.99100        30.47100
C          20.22100        30.79500        28.91300
O          20.12100        32.21200        28.87800
C          21.63600        30.31900        29.20200
C          21.46800        29.06000        30.05700
N          21.81200        27.84700        29.26300
C          23.12600        27.37700        29.30600
O          24.00700        27.99600        29.90700
N          23.47400        26.23900        28.66500
C          22.57000        25.62900        27.92800
N          22.95100        24.51500        27.37800
C          21.23700        26.09800        27.77700
C          20.88700        27.21200        28.47000
H          17.54700        29.30300        30.57200
H          17.44400        30.80100        29.64400
H          19.45600        30.86400        30.90700
H          19.88300        30.35900        27.97200
H          22.17100        30.11600        28.27700
H          22.17400        31.06500        29.78600
H          22.10700        29.12800        30.93800
H          23.88900        24.17400        27.52900
H          22.30700        23.98800        26.80600
H          20.49900        25.60100        27.16400
H          19.88800        27.60400        28.38700
P          20.60000        33.05000        27.59800
O          20.12700        34.43900        27.78700
O          20.19000        32.31900        26.37700
O          22.19800        33.07200        27.66400
C          22.87800        33.78800        28.68800
C          24.40700        33.82700        28.51700
O          24.96200        32.51000        28.56100
C          24.83500        34.52500        27.21800
O          25.85900        35.49600        27.46900
C          25.26100        33.33800        26.35500
C          25.62900        32.21500        27.33700
N          25.27700        30.83000        26.88300
C          26.21900        29.79200        27.02900
O          27.32800        29.93600        27.54500
N          25.85500        28.54100        26.57100
C          24.64300        28.22700        26.00300
O          24.44400        27.07600        25.63100
C          23.69200        29.33000        25.91400
C          22.30600        29.09500        25.33900
C          24.03200        30.57100        26.34800
H          22.64500        33.34000        29.65400
H          22.51900        34.81700        28.70000
H          24.81100        34.38900        29.35900
H          23.98400        35.02700        26.75600
H          24.43200        33.06400        25.70600
H          26.11200        33.58200        25.73400
H          26.70000        32.28200        27.52300
H          26.53200        27.80000        26.66100
H          22.39700        28.77100        24.30200
H          21.70600        30.00400        25.38200
H          21.80700        28.31000        25.90500
H          23.30500        31.36200        26.27600
P          26.58400        36.33900        26.29400
O          27.10500        37.60000        26.86800
O          25.67900        36.41300        25.12000
O          27.82800        35.40900        25.92200
C          28.82400        35.10900        26.89800
C          29.69200        33.89500        26.54200
O          28.87700        32.77100        26.25000
C          30.67300        34.10500        25.38300
O          31.99300        33.91700        25.88400
C          30.27600        33.03200        24.37300
C          29.48600        32.02800        25.21500
N          28.41300        31.33800        24.44800
C          28.42900        29.94600        24.32400
O          29.37700        29.27800        24.74900
N          27.39400        29.29300        23.73300
C          26.38400        30.00200        23.26100
N          25.38900        29.35600        22.72200
C          26.31900        31.41600        23.35600
C          27.35900        32.05500        23.94500
H          28.33600        34.88900        27.84800
H          29.46300        35.98100        27.04100
H          30.27300        33.64600        27.43100
H          30.55600        35.10200        24.95700
H          29.65100        33.47900        23.60000
H          31.14300        32.55300        23.92100
H          30.18300        31.31900        25.66200
H          25.41900        28.35000        22.65700
H          24.59500        29.86400        22.35900
H          25.49100        31.99700        22.97500
H          27.35400        33.13200        24.02100
P          33.30900        34.35900        25.10200
O          34.36200        34.58800        26.11300
O          32.96700        35.46300        24.17400
O          33.73800        33.08400        24.24600
C          34.29600        31.94700        24.90600
C          34.62400        30.78300        23.96600
O          33.41400        30.25000        23.43900
C          35.55000        31.14500        22.79900
O          36.51500        30.10300        22.68100
C          34.57100        31.22400        21.63000
C          33.50000        30.20400        22.02700
N          32.11900        30.38500        21.48200
C          31.34900        29.23300        21.27900
O          31.82400        28.10600        21.44200
N          30.04900        29.31900        20.90700
C          29.52000        30.51400        20.74000
N          28.26100        30.54000        20.41500
C          30.24200        31.72400        20.93300
C          31.54400        31.62200        21.30000
H          33.59400        31.59300        25.66200
H          35.21700        32.24500        25.40700
H          35.10100        30.00500        24.56400
H          36.04600        32.10200        22.96500
H          34.17300        32.23500        21.58100
H          35.02700        30.96600        20.67600
H          33.88500        29.22400        21.74500
H          27.75600        29.67600        20.29000
H          27.79100        31.42400        20.28400
H          29.80200        32.70300        20.81000
H          32.10700        32.52400        21.47800
P          37.69300        30.10200        21.60400
O          38.80200        29.27500        22.14000
O          37.96600        31.48400        21.14700
O          37.00200        29.32800        20.39900
C          36.62100        27.96300        20.50100
C          35.90700        27.50000        19.22500
O          34.54600        27.88800        19.18200
C          36.64800        27.89300        17.94600
O          37.21200        26.66700        17.46900
C          35.52800        28.57300        17.18000
C          34.22800        28.09500        17.82900
N          33.06600        28.98300        17.72500
C          33.08700        30.33600        17.75300
N          31.93100        30.91700        17.56600
C          31.07200        29.81400        17.39900
C          29.69000        29.65200        17.13600
N          28.80400        30.61600        16.98300
N          29.16300        28.44000        16.99800
C          29.94800        27.38500        17.11700
N          31.25100        27.35700        17.37600
C          31.75600        28.62600        17.49800
H          35.95600        27.82400        21.35400
H          37.51400        27.35500        20.64500
H          35.88100        26.41000        19.27100
H          37.45100        28.60800        18.12200
H          35.64400        29.65000        17.29700
H          35.54000        28.33600        16.12100
H          33.97500        27.13300        17.38700
H          33.99000        30.90300        17.92300
H          29.09000        31.58200        17.05900
H          27.84000        30.38800        16.79100
H          29.46500        26.42700        17.00100
P          37.44400        26.25700        15.94900
O          38.29900        25.04800        15.95000
O          37.85900        27.44900        15.17500
O          35.99600        25.80700        15.46900
C          35.31500        24.73100        16.11000
C          33.95700        24.43300        15.46500
O          33.18600        25.62200        15.52400
C          34.07200        24.00600        13.99000
O          33.11200        23.01700        13.63300
C          33.72000        25.29800        13.26500
C          32.67400        25.85600        14.23400
N          32.31900        27.28700        14.07500
C          30.98100        27.58400        13.78200
O          30.13700        26.74400        13.45300
N          30.62100        28.90400        13.83400
C          31.47500        29.96700        13.96200
O          30.99800        31.10000        13.90300
C          32.88300        29.60300        14.10600
C          33.92300        30.71400        14.07200
C          33.25900        28.29200        14.19300
H          35.15500        24.98000        17.16000
H          35.92900        23.83100        16.05800
H          33.46000        23.64700        16.03500
H          35.07700        23.66200        13.74400
H          33.36900        22.63400        12.79100
H          34.58900        25.95300        13.20100
H          33.29700        25.11700        12.27600
H          31.77800        25.24400        14.13700
H          29.65100        29.11400        13.69000
H          34.93100        30.30100        14.11000
H          33.80500        31.29200        13.15500
H          33.77200        31.37800        14.92300
H          34.30200        28.03300        14.28800
H          24.16119        31.45328        41.03359
H          29.84520        30.62390        39.14400
H          34.35487        25.11557        35.43107
H          36.95679        21.26871        29.65531
H          33.26503        18.30982        23.51843