%chk=2LFXconst.chk
%nprocshared=16
%mem=32GB
#p  ub3lyp genecp scrf=(cpcm,solvent=thf) nosymm 
empiricaldispersion=gd3bj pop=hirshfeld
 
title

0  1
O           8.59300         0.19800        -4.78800
C           8.92500         0.10200        -3.41400
C           9.36100         1.48100        -2.90000
O           8.32300         2.41900        -3.17100
C           9.58900         1.48700        -1.39100
O          10.62500         2.41200        -1.11800
C           8.22700         1.90700        -0.84600
C           7.68000         2.80000        -1.95700
N           6.21500         2.68300        -2.14700
C           5.48200         1.57500        -2.49000
N           4.23400         1.82000        -2.77700
C           4.10600         3.20000        -2.54100
C           2.99200         4.10900        -2.67000
O           1.83400         3.89900        -3.03700
N           3.32000         5.41700        -2.37900
C           4.54600         5.82000        -1.97800
N           4.71400         7.08400        -1.72100
N           5.60400         5.02800        -1.85800
C           5.32000         3.72500        -2.14700
H           9.74200        -0.60900        -3.28800
H           8.05600        -0.24800        -2.85700
H          10.27200         1.77700        -3.42100
H           9.86300         0.49000        -1.04400
H           7.60100         1.02300        -0.71800
H           8.29900         2.44700         0.09600
H           7.95000         3.83300        -1.73600
H           5.91500         0.59000        -2.57700
H           2.53537         6.13011        -2.50754
H           5.58064         7.42438        -1.30706
H           3.95517         7.78149        -1.77274
H           7.86400         0.81600        -4.88300
P          11.31100         2.50400         0.33300
O          12.67300         3.03900         0.13600
O          11.11400         1.19300         0.98300
O          10.39100         3.62100         1.03900
C          10.50900         4.98600         0.66200
C           9.46000         5.91200         1.29500
O           8.15200         5.57200         0.85800
C           9.45500         5.96000         2.82900
O           9.59900         7.31900         3.22100
C           8.07300         5.41300         3.18200
C           7.26800         5.80500         1.94100
N           6.00900         5.04000         1.72400
C           4.84600         5.76100         1.41300
O           4.80400         6.98800         1.34000
N           3.72103         5.02698         1.11302
C           3.66399         3.65600         1.01700
O           2.64200         3.14300         0.57500
C           4.89500         2.95700         1.38700
C           4.94500         1.43800         1.36700
C           6.01200         3.65800         1.72100
H          10.41600         5.06300        -0.42200
H          11.49900         5.34500         0.94400
H           9.66600         6.91800         0.92800
H          10.25000         5.34100         3.24600
H           8.13500         4.33200         3.29600
H           7.65600         5.86200         4.08200
H           7.06600         6.87500         1.99700
H           2.83362         5.58273         0.92523
H           4.21700         1.04500         2.07600
H           4.68700         1.08100         0.37000
H           5.93900         1.07700         1.63200
H           6.92100         3.12600         1.95700
P           9.89100         7.75500         4.74500
O          10.61300         9.04600         4.69700
O          10.48800         6.60000         5.44200
O           8.40900         8.00700         5.32300
C           7.73000         9.22100         5.04700
C           6.28800         9.26600         5.57200
O           5.45500         8.36500         4.86100
C           6.12000         8.99200         7.07300
O           5.64100        10.18500         7.68700
C           5.09400         7.85400         7.09800
C           4.41600         7.96500         5.73200
N           3.83600         6.69900         5.23300
C           4.48300         5.52100         4.96500
N           3.72900         4.59900         4.43100
C           2.46400         5.21000         4.36100
C           1.19100         4.74500         3.86700
O           0.89100         3.67000         3.35000
N           0.18000         5.67600         3.98400
C           0.35000         6.91500         4.49500
N          -0.69600         7.69300         4.53800
N           1.50600         7.40600         4.93300
C           2.52800         6.49800         4.85300
H           7.70800         9.37900         3.96800
H           8.28300        10.04300         5.50200
H           5.90700        10.26800         5.36900
H           7.06300         8.67600         7.52100
H           5.61500         6.90000         7.18700
H           4.36800         7.95900         7.90200
H           3.65800         8.74800         5.76900
H           5.53600         5.37500         5.15400
H          -0.78686         5.36677         3.64077
H          -0.65076         8.60615         4.97991
H          -1.64168         7.39131         4.23788
P           5.55500        10.36600         9.29000
O           5.64700        11.81500         9.57900
O           6.50100         9.42700         9.92300
O           4.06000         9.88900         9.61400
C           2.96300        10.71000         9.25200
C           1.60000        10.03500         9.43900
O           1.48200         8.91900         8.56700
C           1.27700         9.57200        10.87000
O           0.00600        10.11700        11.20500
C           1.26700         8.05200        10.71200
C           0.78200         7.91100         9.26900
N           1.00300         6.58200         8.63300
C          -0.03700         6.01300         7.88300
O          -1.11200         6.58900         7.71400
N           0.11900         4.80800         7.28700
C           1.25900         4.17300         7.44000
N           1.35900         3.02700         6.83500
C           2.37300         4.71500         8.14000
C           2.20700         5.92700         8.72800
H           3.06000        10.99300         8.20300
H           2.98500        11.61800         9.85500
H           0.84400        10.76100         9.13700
H           2.03900         9.89600        11.57900
H           2.28300         7.67600        10.83000
H           0.60100         7.55500        11.41500
H          -0.27900         8.16200         9.25500
H           2.19475         2.45237         6.86023
H           0.57519         2.59567         6.30387
H           3.32600         4.21200         8.22100
H           3.03300         6.37400         9.26000
P          -0.68100         9.96400        12.65400
N          -3.31900         2.79900         9.70800
C          -4.57300         3.26300         9.68400
N          -5.47600         2.39000         9.35000
N          -4.93600         4.50300         9.96300
C          -3.86700         5.26800        10.30200
C          -2.53900         4.91600        10.36700
C          -2.21600         3.56100        10.00000
O          -1.13300         2.99700         9.90100
N          -1.76900         6.01500        10.81100
C          -2.66700         6.94800        11.00400
N          -3.92600         6.58000        10.65700
C          -5.11500         7.40300        10.86700
C          -5.52400         7.28300        12.31600
O          -1.65100        11.07200        12.77600
C          -4.57200         8.22600        13.06700
O          -5.37300         9.07300        13.87000
C          -3.86800         8.97200        11.90400
O          -4.73000         8.76500        10.77900
C          -2.48000         8.39400        11.48500
O          -1.49100         8.56800        12.50000
O           0.39200         9.81800        13.65700
H          -3.13413         1.77137         9.50920
H          -5.92000         7.14600        10.17900
H          -6.55600         7.61900        12.39300
H          -5.43500         6.25900        12.66600
H          -5.25827         1.42569         9.07610
H          -6.45606         2.64588         9.25940
H          -3.84200         7.67600        13.66100
H          -3.81600        10.03700        12.12400
H          -2.17000         8.95000        10.61000
P          -5.76800         8.65700        15.36700
O          -6.75900         9.63800        15.86600
O          -4.52800         8.42900        16.12600
O          -6.51800         7.23500        15.24300
C          -7.88100         7.13800        14.85300
C          -8.33900         5.68100        14.67000
O          -7.47500         4.98300        13.77700
C          -8.42300         4.89700        15.98500
O          -9.65500         4.18400        16.00700
C          -7.20700         3.98600        15.90400
C          -6.99700         3.79700        14.39900
N          -5.57000         3.55600        14.03700
C          -5.23900         2.37200        13.35800
O          -6.07000         1.54500        12.99300
N          -3.90300         2.14200        13.11800
C          -2.87200         2.98700        13.46200
O          -1.72500         2.65200        13.19300
C          -3.28200         4.22700        14.12200
C          -2.24300         5.26300        14.51800
C          -4.59200         4.46400        14.39500
H          -8.03900         7.67500        13.91900
H          -8.50400         7.60700        15.61500
H          -9.33300         5.71100        14.22200
H          -8.35700         5.56400        16.84600
H          -6.35800         4.48700        16.36800
H          -7.37900         3.03300        16.39400
H          -7.62900         2.97100        14.07400
H          -3.66000         1.19419        12.70352
H          -1.51600         4.80500        15.18800
H          -1.72000         5.61300        13.62900
H          -2.70800         6.11100        15.02100
H          -4.87300         5.37800        14.89300
P         -10.16700         3.35000        17.28800
O         -11.64400         3.28700        17.21700
O          -9.51700         3.89900        18.49700
O          -9.57900         1.87800        17.00500
C         -10.03900         1.12000        15.89400
C          -9.30300        -0.21500        15.71200
O          -7.95100         0.01700        15.34400
C          -9.32100        -1.13200        16.94400
O          -9.88600        -2.38500        16.57100
C          -7.83500        -1.24300        17.28900
C          -7.14500        -0.97400        15.95300
N          -5.75900        -0.46400        16.09100
C          -5.35800         0.75500        16.57000
N          -4.06900         0.95400        16.54400
C          -3.56200        -0.24500        16.01700
C          -2.21500        -0.69400        15.75300
O          -1.14200        -0.10900        15.89800
N          -2.15400        -1.99000        15.28400
C          -3.23900        -2.76000        15.04100
N          -3.03100        -3.96900        14.60200
N          -4.49800        -2.39100        15.25800
C          -4.59800        -1.12000        15.74900
H          -9.91600         1.70700        14.98300
H         -11.10100         0.91200        16.02600
H          -9.78000        -0.74200        14.88400
H          -9.88400        -0.68300        17.76300
H          -7.57400        -0.46800        18.01100
H          -7.57100        -2.22400        17.67800
H          -7.16600        -1.87900        15.34500
H          -6.05000         1.49000        16.94600
H          -1.16938        -2.37334        15.08342
H          -3.80515        -4.57527        14.34643
H          -2.08345        -4.35102        14.40039
P         -10.26700        -3.53200        17.63900
O         -11.41000        -4.29700        17.09300
O         -10.37800        -2.91500        18.98000
O          -8.95900        -4.47500        17.62300
C          -8.65600        -5.25300        16.47300
C          -7.35500        -6.06400        16.58000
O          -6.23400        -5.19100        16.58800
C          -7.26100        -6.99500        17.80000
O          -7.13800        -8.34700        17.36500
C          -6.00800        -6.47700        18.50900
C          -5.23000        -5.74700        17.41400
N          -4.35900        -4.65400        17.93400
C          -2.96800        -4.77300        17.80000
O          -2.41100        -5.76800        17.35600
N          -2.21000        -3.71000        18.23400
C          -2.69300        -2.56200        18.81900
O          -1.90200        -1.69200        19.17000
C          -4.14600        -2.51700        18.97100
C          -4.80300        -1.31600        19.62800
C          -4.92100        -3.54200        18.52600
H          -8.58000        -4.59400        15.60700
H          -9.47500        -5.95100        16.29800
H          -7.27700        -6.67700        15.68100
H          -8.13600        -6.88500        18.44100
H          -6.30700        -5.78400        19.29600
H          -5.41200        -7.27800        18.93300
H          -4.66000        -6.47300        16.83400
H          -1.14636        -3.78979        18.09212
H          -4.43500        -1.22100        20.65000
H          -4.53900        -0.41200        19.08200
H          -5.88700        -1.42600        19.64700
H          -5.99300        -3.49500        18.64400
P          -7.14100        -9.61200        18.37900
O          -7.61800       -10.79900        17.63200
O          -7.82700        -9.21100        19.62800
O          -5.57100        -9.80200        18.71000
C          -4.64400       -10.21000        17.70600
C          -3.17300       -10.03700        18.12800
O          -2.91400        -8.67100        18.40700
C          -2.72300       -10.85600        19.35000
O          -1.83700       -11.90600        18.96700
C          -2.02600        -9.81100        20.22800
C          -1.82900        -8.60700        19.30900
N          -1.85400        -7.31600        20.04500
C          -0.67000        -6.57600        20.14900
O           0.41400        -6.96000        19.72900
N          -0.75000        -5.37200        20.80500
C          -1.88100        -4.84100        21.38300
O          -1.81200        -3.75500        21.95100
C          -3.08200        -5.66800        21.25100
C          -4.39900        -5.20900        21.85100
C          -3.03000        -6.86100        20.60300
H          -4.80800        -9.61400        16.80700
H          -4.82300       -11.25700        17.46000
H          -2.54600       -10.32200        17.28200
H          -3.59200       -11.26200        19.86800
H          -2.68000        -9.55700        21.06300
H          -1.06400       -10.14500        20.60600
H          -0.90200        -8.73000        18.74900
H           0.18171        -4.83104        20.90293
H          -5.18800        -5.93900        21.66700
H          -4.27700        -5.07400        22.92600
H          -4.68300        -4.25300        21.41200
H          -3.91700        -7.47100        20.53100
P          -1.35900       -13.05600        20.00300
O          -0.91500       -14.23500        19.22600
O          -2.41200       -13.22100        21.02900
O          -0.06400       -12.41000        20.72000
C           1.15200       -12.21900        20.00400
C           2.19700       -11.41300        20.79300
O           1.71600       -10.09500        21.01500
C           2.61000       -12.00000        22.15600
O           3.94700       -12.50000        22.12100
C           2.48800       -10.79600        23.09400
C           2.34800        -9.58700        22.16900
N           1.53000        -8.50500        22.78000
C           2.16600        -7.32000        23.17200
O           3.37600        -7.13200        23.08300
N           1.37100        -6.34401        23.72700
C           0.03000        -6.46700        24.01300
O          -0.55500        -5.52900        24.55000
C          -0.56300        -7.75100        23.63400
C          -2.02700        -8.03500        23.92700
C           0.18900        -8.70800        23.02800
H           0.94000       -11.68900        19.07500
H           1.57500       -13.19300        19.75600
H           3.09300       -11.33200        20.17600
H           1.91700       -12.78600        22.45700
H           1.60100       -10.91900        23.71600
H           3.36200       -10.66700        23.72700
H           3.34100        -9.23000        21.89300
H           1.87914        -5.45108        24.03687
H          -2.64700        -7.26100        23.47900
H          -2.32300        -9.00800        23.53400
H          -2.18600        -8.01800        25.00500
H          -0.26000        -9.65300        22.75800
P           4.60300       -13.32600        23.35200
O           5.69700       -14.16800        22.81800
O           3.52000       -13.95300        24.13900
O           5.27100       -12.18100        24.27100
C           6.41000       -11.46100        23.82100
C           6.88300       -10.38700        24.81500
O           5.95500        -9.30600        24.84000
C           7.09200       -10.90200        26.25100
O           8.41800       -10.60400        26.69900
C           6.00000       -10.13700        26.99800
C           5.79100        -8.86400        26.17300
N           4.44500        -8.26300        26.37200
C           3.22300        -8.85700        26.17400
N           2.19900        -8.14100        26.55800
C           2.78300        -6.95100        27.01700
C           2.20800        -5.76300        27.60400
O           1.03500        -5.49400        27.87100
N           3.14600        -4.81300        27.95200
C           4.47600        -4.96400        27.76600
N           5.23900        -3.96700        28.12000
N           5.06000        -6.05800        27.28100
C           4.15900        -7.01900        26.90200
H           6.18000       -10.98100        22.86900
H           7.22900       -12.16300        23.66300
H           7.83300        -9.99500        24.45000
H           6.91700       -11.97600        26.31600
H           5.09000       -10.73800        27.00300
H           6.28600        -9.90300        28.01700
H           6.57500        -8.14500        26.41400
H           3.11600        -9.85600        25.78100
H           2.75900        -3.90539        28.37648
H           6.24202        -3.99228        27.96449
H           4.86822        -3.07017        28.49463
P           8.96700       -10.97100        28.17600
O          10.43800       -11.13800        28.13000
O           8.12300       -12.01700        28.78700
O           8.67800        -9.60400        28.96400
C           9.28300        -8.39200        28.54300
C           8.93800        -7.24000        29.49000
O           7.57000        -6.90500        29.34800
C           9.19600        -7.58900        30.96900
O           9.97700        -6.60500        31.63400
C           7.79200        -7.61000        31.56100
C           7.02700        -6.67000        30.62900
N           5.56700        -6.93800        30.63300
C           4.72600        -5.97901        31.20000
O           5.12800        -4.97900        31.78900
N           3.38103        -6.24401        31.15499
C           2.79699        -7.41200        30.72800
O           1.58400        -7.54200        30.86500
C           3.73300        -8.40200        30.19500
C           3.22300        -9.74200        29.69200
C           5.06700        -8.13300        30.15700
H           8.94800        -8.14000        27.53600
H          10.36600        -8.51600        28.53200
H           9.53700        -6.37100        29.21500
H           9.67400        -8.56200        31.08200
H          10.85800        -6.60600        31.25300
H           7.39300        -8.62400        31.50800
H           7.77200        -7.25100        32.59100
H           7.24400        -5.63900        30.90900
H           2.73349        -5.45537        31.50843
H           4.03700       -10.34400        29.28900
H           2.75400       -10.27900        30.51700
H           2.47300        -9.58200        28.92000
H           5.75400        -8.87200        29.78000
O          -2.82400         0.80600        36.88100
C          -2.74700         1.68300        35.76900
C          -1.32700         1.66300        35.18700
O          -1.00100         0.31500        34.86100
C          -1.21700         2.49300        33.90400
O          -0.07200         3.31600        33.99300
C          -1.08600         1.44100        32.80800
C          -0.43800         0.28500        33.55800
N          -0.73000        -1.02300        32.93500
C          -1.95200        -1.56700        32.62400
N          -1.90000        -2.76300        32.10600
C          -0.51500        -3.01400        32.05500
C           0.29500        -4.10001        31.64300
N          -0.16000        -5.22600        31.12900
N           1.61599        -4.06498        31.79401
C           2.16799        -2.96200        32.27800
N           1.54800        -1.87400        32.71700
C           0.20000        -1.96400        32.56800
H          -2.99500         2.69500        36.08900
H          -3.46000         1.36200        35.00900
H          -0.62500         2.03700        35.93400
H          -2.11100         3.10100        33.75900
H          -2.08100         1.16800        32.45400
H          -0.46700         1.76500        31.97300
H           0.63700         0.45600        33.62500
H          -2.88500        -1.05500        32.81100
H          -1.14874        -5.38065        30.97458
H           0.46253        -6.00536        30.84420
H           3.24400        -2.96700        32.37000
H          -2.61500        -0.08300        36.58300
P           0.23800         4.44900        32.89200
O           0.83600         5.59500        33.60500
O          -0.99000         4.62300        32.08600
O           1.35600         3.71000        32.00300
C           2.65100         3.45900        32.53300
C           3.56100         2.65100        31.59300
O           3.00700         1.37000        31.32600
C           3.87800         3.33000        30.25300
O           5.28700         3.50000        30.16200
C           3.35000         2.32800        29.22500
C           3.35900         1.00800        30.00200
N           2.38900        -0.00500        29.50100
C           2.84000        -1.28500        29.14700
O           4.02800        -1.59800        29.19600
N           1.96100        -2.24400        28.77300
C           0.68600        -1.94200        28.71500
N          -0.10700        -2.91700        28.38200
C           0.15400        -0.67200        29.07600
C           1.04500         0.27800        29.46800
H           2.55000         2.90500        33.46700
H           3.13600         4.41100        32.75100
H           4.50200         2.48800        32.12000
H           3.36300         4.28800        30.16900
H           2.33600         2.61000        28.94100
H           3.97500         2.26000        28.33700
H           4.37600         0.61500        30.00700
H          -1.11464        -2.82919        28.35336
H           0.25412        -3.87295        28.14810
H          -0.90100        -0.44000        29.06200
H           0.68800         1.25300        29.76800
P           5.97800         4.38900        29.00500
O           7.27500         4.86400        29.53600
O           4.98300         5.35800        28.50500
O           6.25800         3.29800        27.85800
C           7.29600         2.34300        28.01300
C           7.33000         1.28500        26.90100
O           6.19200         0.43600        26.95400
C           7.45700         1.84300        25.47400
O           8.71600         1.42800        24.95200
C           6.26400         1.20700        24.75300
C           5.91600         0.00700        25.63400
N           4.49700        -0.40800        25.55900
C           3.37900         0.33300        25.85700
N           2.25200        -0.32800        25.79600
C           2.67200        -1.60700        25.38400
C           2.02300        -2.83400        25.10200
N           0.72000        -3.02100        25.15200
N           2.70700        -3.91399        24.73300
C           4.02300        -3.80500        24.60900
N           4.77700        -2.74000        24.85900
C           4.03300        -1.66300        25.23600
H           7.17200         1.83200        28.96800
H           8.25500         2.86200        28.02400
H           8.19800         0.65200        27.09200
H           7.37900         2.93100        25.46700
H           5.43600         1.91700        24.73500
H           6.50200         0.88900        23.73900
H           6.57500        -0.82500        25.38400
H           3.42800         1.37000        26.15300
H           0.08665        -2.27255        25.40170
H           0.27611        -3.93879        24.94136
H           4.54700        -4.69900        24.30600
P           9.30500         1.94100        23.53600
O          10.78100         1.88300        23.62400
O           8.63600         3.20500        23.16500
O           8.81300         0.78000        22.54000
C           9.35400        -0.52700        22.64800
C           8.64700        -1.55300        21.75700
O           7.28500        -1.68100        22.12800
C           8.72000        -1.28400        20.24700
O           9.53900        -2.29300        19.66000
C           7.24800        -1.35900        19.82500
C           6.56600        -2.09100        20.98400
N           5.13800        -1.74600        21.17900
C           4.59000        -0.52200        21.47800
N           3.29600        -0.53400        21.67100
C           2.96800        -1.88600        21.47000
C           1.77500        -2.64800        21.52700
N           0.58400        -2.15300        21.80700
N           1.77500        -3.96100        21.29700
C           2.93500        -4.53700        21.00200
N           4.13100        -3.96500        20.92800
C           4.08000        -2.62700        21.17200
H           9.27200        -0.86400        23.68200
H          10.41000        -0.50000        22.37900
H           9.11600        -2.52000        21.94700
H           9.12800        -0.29200        20.04800
H           6.84800        -0.34900        19.72500
H           7.11700        -1.90700        18.89500
H           6.68900        -3.16600        20.85200
H           5.18200         0.37700        21.56400
H           0.44956        -1.16169        21.97531
H          -0.27345        -2.73154        21.83741
H           2.90300        -5.60000        20.81300
P          10.01100        -2.26800        18.11600
O          11.32700        -2.94400        18.03400
O           9.86300        -0.89400        17.59800
O           8.91300        -3.21600        17.41100
C           8.90400        -4.61500        17.67100
C           7.74900        -5.38000        17.00800
O           6.51500        -4.95300        17.56800
C           7.67100        -5.27300        15.47600
O           7.61600        -6.59200        14.93300
C           6.39300        -4.45800        15.28800
C           5.56500        -4.78500        16.53200
N           4.63500        -3.69900        16.92300
C           4.91200        -2.36700        17.11900
N           3.89000        -1.64400        17.49900
C           2.85600        -2.59600        17.57600
C           1.48600        -2.56300        17.93800
N           0.84400        -1.48300        18.33900
N           0.72900        -3.66000        17.90600
C           1.30100        -4.79400        17.51700
N           2.56200        -4.98200        17.14200
C           3.29600        -3.83900        17.20900
H           8.84300        -4.77400        18.74800
H           9.84200        -5.04400        17.31800
H           7.87400        -6.43200        17.26700
H           8.53200        -4.73900        15.07300
H           6.65100        -3.39900        15.26600
H           5.86100        -4.72100        14.37800
H           5.03100        -5.72200        16.37500
H           5.89300        -1.94500        16.96100
H           1.30273        -0.58081        18.40537
H          -0.16432        -1.49214        18.57949
H           0.64482        -5.70069        17.50814
P           7.50500        -6.92000        13.35400
O           8.05900        -8.27300        13.12700
O           8.05000        -5.77900        12.59000
O           5.90500        -6.97900        13.15300
C           5.13300        -7.98400        13.80300
C           3.61300        -7.82300        13.63300
O           3.16200        -6.62800        14.25700
C           3.11600        -7.81500        12.17900
O           2.23800        -8.91800        11.97900
C           2.39600        -6.46800        12.07600
C           2.05100        -6.14000        13.52900
N           1.89200        -4.67900        13.77400
C           0.64300        -4.16100        14.14400
O          -0.36300        -4.86400        14.19700
N           0.50600        -2.85200        14.46200
C           1.56600        -2.07800        14.40100
N           1.39600        -0.84900        14.78800
C           2.86000        -2.53600        14.02900
C           2.98200        -3.84900        13.70900
H           5.35600        -7.97000        14.87000
H           5.42200        -8.95900        13.40900
H           3.13600        -8.65700        14.15000
H           3.95500        -7.85900        11.48400
H           3.08400        -5.72600        11.66800
H           1.49700        -6.50800        11.46600
H           1.16100        -6.69600        13.82400
H           2.15499        -0.18159        14.86361
H           0.47252        -0.49461        15.13233
H           3.73000        -1.89700        13.99100
H           3.94200        -4.24100        13.41300
P           1.72200        -9.36400        10.51600
O           1.30500       -10.78200        10.58600
O           2.73300        -8.95300         9.51800
O           0.40600        -8.45600        10.31200