%chk=2lib_05_min_1.chk
%nprocshared=16
%mem=32GB
#p  ub3lyp genecp scrf=(cpcm,solvent=thf) nosymm 
empiricaldispersion=gd3bj pop=hirshfeld
 
title

0  1
O          17.73499        44.04100        11.88899
C          18.61100        44.77800        12.73500
C          18.80200        44.15000        14.12400
O          17.62500        44.22900        14.91200
C          19.27500        42.68500        14.12500
O          20.61800        42.69700        14.59200
C          18.31600        42.01200        15.13100
C          17.69100        43.18300        15.86900
N          16.33698        42.87100        16.39099
C          15.11900        43.01000        15.76100
N          14.09900        42.59000        16.46400
C          14.69000        42.14800        17.65900
C          14.11800        41.58400        18.85201
O          12.93501        41.35600        19.10900
N          15.04700        41.27300        19.82000
C          16.37300        41.50600        19.69400
N          17.11800        41.21401        20.72400
N          16.95200        42.04000        18.62100
C          16.05600        42.33200        17.62600
H          18.22300        45.79000        12.85200
H          19.58500        44.83900        12.24900
H          19.55600        44.74800        14.64000
H          19.19800        42.23400        13.13600
H          17.54700        41.45700        14.59100
H          18.83800        41.35500        15.82500
H          18.35000        43.48400        16.68400
H          15.01500        43.41800        14.76600
H          14.65624        40.81157        20.71279
H          16.76541        40.65396        21.53149
H          18.13257        41.28701        20.67918
H          16.84400        44.10600        12.24200
P          21.64100        41.49800        14.35200
O          22.98400        42.00200        14.71400
O          21.46300        40.93600        12.99300
O          21.24500        40.38500        15.41500
C          21.57900        40.55000        16.78800
C          21.04100        39.45000        17.70600
O          19.68099        39.67600        18.04000
C          21.18200        38.01700        17.17200
O          22.28000        37.33800        17.77500
C          19.82900        37.39400        17.51200
C          19.10300        38.43000        18.37100
N          17.63900        38.46600        18.12300
C          16.80000        38.11600        19.19000
O          17.19700        37.81200        20.31100
N          15.45400        38.10999        18.93700
C          14.86601        38.36214        17.72182
O          13.64201        38.32670        17.64235
C          15.79101        38.66502        16.63200
C          15.22990        38.85710        15.23191
C          17.13300        38.74000        16.86300
H          21.20200        41.51100        17.14000
H          22.66600        40.55700        16.87900
H          21.60000        39.50700        18.64100
H          21.30800        38.03000        16.09000
H          19.28800        37.18000        16.59000
H          19.95100        36.48300        18.09100
H          19.32500        38.22200        19.41800
H          14.83003        37.79833        19.76238
H          14.65916        37.97288        14.94711
H          16.03400        39.01400        14.51200
H          14.56299        39.71899        15.22502
H          17.81200        38.96600        16.05300
P          22.77700        35.89700        17.29100
O          24.22300        35.81900        17.61200
O          22.38500        35.71900        15.87400
O          21.97700        34.84200        18.19400
C          22.24100        34.72400        19.59200
C          21.19000        33.90500        20.36300
O          19.91100        34.52000        20.22300
C          21.08200        32.41800        19.97700
O          21.33300        31.58800        21.11500
C          19.64100        32.30600        19.49400
C          18.91600        33.52200        20.08300
N          17.83900        34.03600        19.18600
C          16.50500        34.10000        19.62200
O          16.16400        33.72700        20.74700
N          15.52800        34.55800        18.79900
C          15.86202        34.93202        17.58099
N          14.89297        35.30392        16.79901
C          17.19600        34.91900        17.08900
C          18.15900        34.45400        17.91900
H          22.27000        35.72300        20.02900
H          23.22000        34.26400        19.73200
H          21.45600        33.95300        21.42000
H          21.77600        32.17300        19.17200
H          19.63300        32.32200        18.40400
H          19.18100        31.39100        19.84200
H          18.53000        33.26500        21.06900
H          13.88797        35.28031        17.09009
H          14.99526        35.61288        15.82239
H          17.46500        35.24000        16.09300
H          19.18200        34.41200        17.57700
P          21.38600        29.97700        21.06300
O          22.51300        29.57600        21.93300
O          21.41600        29.52400        19.65400
O          20.00500        29.45700        21.70200
C          19.71000        29.65800        23.08200
C          18.31500        29.18300        23.54400
O          17.29400        29.94100        22.90300
C          17.99600        27.69300        23.35000
O          17.28500        27.20200        24.48900
C          17.12000        27.72900        22.10500
C          16.38400        29.06400        22.25900
N          15.94800        29.66900        20.97600
C          14.60900        30.03100        20.76000
O          13.72600        29.82400        21.59800
N          14.24300        30.63700        19.60400
C          15.17994        30.89533        18.71267
N          14.80517        31.47923        17.61404
C          16.55600        30.62100        18.90300
C          16.90000        29.99200        20.05500
H          19.79200        30.72300        23.30200
H          20.46000        29.13500        23.67700
H          18.25600        29.39700        24.61200
H          18.90700        27.11800        23.18300
H          17.75500        27.72300        21.22000
H          16.42400        26.89400        22.06000
H          15.53200        28.91000        22.92100
H          13.80775        31.72388        17.41293
H          15.44126        31.71361        16.86294
H          17.31700        30.87100        18.17800
H          17.93000        29.73700        20.24000
C          11.07700        26.71200        20.96200
N          12.34100        26.83600        20.47600
C          12.20400        27.46200        19.25500
C          10.85700        27.67400        19.09400
N          10.13500        27.20700        20.20600
N          13.19700        27.79900        18.38100
C          12.71400        28.40100        17.29400
N          11.44700        28.66200        16.99000
C          10.51200        28.30199        17.87299
N           9.28399        28.59706        17.48903
P          17.00600        25.64800        24.74600
O          16.75800        25.47500        26.19500
O          18.08400        24.85000        24.12300
O          15.65500        25.28800        23.97600
C          14.39400        25.71800        24.47300
C          13.31200        25.76500        23.38600
O          13.59400        26.84600        22.49800
C          13.15800        24.47400        22.56900
O          11.77500        24.13400        22.49700
C          13.74800        24.88300        21.22100
C          13.58400        26.40000        21.15100
H          10.86200        26.28700        21.92800
H          13.44500        28.69900        16.55700
H           8.48235        28.35901        18.06513
H           9.06943        29.01253        16.57546
H          14.49100        26.71900        24.89500
H          14.07700        25.04000        25.26600
H          12.36400        25.97900        23.88100
H          13.72400        23.65500        23.01600
H          14.81100        24.64100        21.20600
H          13.25000        24.38700        20.38700
H          14.43400        26.83200        20.62300
P          11.23000        22.71000        22.00400
O          10.47800        22.09200        23.12200
O          12.32800        21.95300        21.36300
O          10.15000        23.11100        20.89600
C           8.95800        23.80600        21.26600
C           7.92600        23.93200        20.13800
O           8.40900        24.83500        19.16300
C           7.62400        22.59700        19.44700
O           6.23700        22.54500        19.13100
C           8.49800        22.67800        18.20000
C           8.52400        24.17700        17.92000
N           9.79100        24.59700        17.29500
C          11.05500        24.37000        17.77200
N          12.00800        24.86000        17.02900
C          11.31100        25.49200        15.98900
C          11.78100        26.26800        14.87300
O          12.93800        26.55300        14.55400
N          10.76500        26.75100        14.07700
C           9.44996        26.52406        14.30707
N           8.62113        27.01473        13.42883
N           8.95700        25.80400        15.31600
C           9.94800        25.32600        16.13700
H           9.21100        24.80100        21.62900
H           8.47700        23.26700        22.08300
H           7.00800        24.33700        20.56500
H           7.90400        21.75200        20.07700
H           9.49200        22.29600        18.43200
H           8.09000        22.12900        17.35300
H           7.67300        24.44200        17.29200
H          11.25300        23.82200        18.68100
H          11.05325        27.36542        13.25214
H           8.91283        27.57964        12.61093
H           7.59861        26.79958        13.46663
P           5.56000        21.25500        18.47900
O           4.14000        21.24100        18.89400
O           6.39900        20.06700        18.75600
O           5.60900        21.53000        16.91800
C           4.84100        22.57200        16.33500
C           5.05300        22.68300        14.82400
O           6.34400        23.19400        14.53800
C           4.87800        21.35900        14.07200
O           4.15300        21.61800        12.88100
C           6.31800        21.00800        13.73200
C           6.89200        22.39200        13.51200
N           8.36200        22.50400        13.54900
C           9.26100        21.89900        14.39200
N          10.50300        22.26300        14.19700
C          10.41500        23.15900        13.11800
C          11.41600        23.90100        12.39700
O          12.63000        23.95800        12.59100
N          10.90900        24.64900        11.35500
C           9.58799        24.73605        11.06504
N           9.24305        25.44359        10.02693
N           8.62100        24.10700        11.72500
C           9.10400        23.31600        12.73000
H           5.10600        23.52300        16.79800
H           3.78400        22.37900        16.51900
H           4.32100        23.39700        14.44500
H           4.39200        20.59700        14.68300
H           6.79500        20.52100        14.58300
H           6.39500        20.38500        12.84300
H           6.52600        22.76000        12.55300
H           8.96900        21.20500        15.16600
H          11.62428        25.14452        10.73941
H           9.90914        25.94622         9.41760
H           8.27029        25.53127         9.72683
P           3.34500        20.50100        12.09900
O           1.91900        20.67300        12.44300
O           3.98600        19.17800        12.28100
O           3.51500        20.93300        10.57700
C           2.99100        22.17900        10.11800
C           3.57200        22.60100         8.76300
O           4.93200        22.97300         8.94300
C           3.43500        21.50600         7.69900
O           2.96300        22.08500         6.48700
C           4.86400        21.01200         7.66400
C           5.75100        22.17800         8.11600
N           6.89100        21.71200         8.94300
C           6.87300        20.88900        10.04700
N           8.04600        20.66300        10.58300
C           8.90400        21.39600         9.74500
C          10.29797        21.63114         9.70011
N          11.16613        21.15455        10.56266
N          10.84900        22.40800         8.76500
C          10.03800        22.95800         7.87500
N           8.71900        22.84500         7.77800
C           8.21100        22.04000         8.75500
H           3.21700        22.96300        10.84200
H           1.90700        22.09500        10.03000
H           3.02600        23.48500         8.43100
H           2.75800        20.71700         8.02900
H           4.95200        20.16800         8.34900
H           5.12800        20.67300         6.67400
H           6.08300        22.75800         7.25500
H           5.96700        20.46200        10.44600
H          12.17265        21.37669        10.52969
H          10.90572        20.53555        11.33777
H          10.51100        23.58200         7.13100
P           2.55400        21.21000         5.21200
O           1.72400        22.06400         4.33300
O           1.95700        19.95500         5.70900
O           3.93300        20.89000         4.46400
C           4.75200        21.96700         4.02100
C           6.23100        21.59900         3.86400
O           6.86300        21.23700         5.07000
C           6.57300        20.57300         2.77100
O           7.32800        21.20000         1.72900
C           7.42900        19.60100         3.56600
C           7.95800        20.42000         4.73000
N           8.31800        19.63399         5.92100
C           9.62903        19.67997         6.39601
O          10.49898        20.33800         5.82000
N           9.98500        19.01202         7.51301
C           9.05099        18.34005         8.15303
N           9.46396        17.72696         9.22367
C           7.68700        18.28700         7.73800
C           7.35200        18.94700         6.59500
H           4.69900        22.78400         4.74200
H           4.37000        22.33400         3.06800
H           6.72100        22.52700         3.56600
H           5.67900        20.08600         2.38100
H           6.79800        18.78600         3.92300
H           8.25600        19.18600         2.99900
H           8.78200        21.04600         4.38600
H          10.45168        17.77405         9.54104
H           8.85743        17.17661         9.81969
H           6.92800        17.73700         8.27500
H           6.34000        18.90800         6.22200
P           7.74600        20.44800         0.37500
O           8.20600        21.46400        -0.59500
O           6.62800        19.56300        -0.01700
O           8.97300        19.48600         0.70400
C          10.28800        19.96600         0.96500
C          11.31300        18.83500         1.18900
O          11.38100        18.46900         2.56100
C          11.06600        17.55800         0.35500
O          12.14000        17.29700        -0.53500
C          11.02800        16.43800         1.40700
C          11.63700        17.07900         2.67300
N          11.09500        16.62100         3.97600
C           9.80700        16.31800         4.34100
N           9.69300        15.77000         5.52100
C          11.01000        15.71300         5.98500
C          11.58200        15.10900         7.15900
O          11.03500        14.48600         8.07300
N          12.95701        15.19800         7.19901
C          13.70600        15.82600         6.25999
N          15.00001        15.73001         6.38101
N          13.22500        16.40900         5.16700
C          11.86500        16.29200         5.07000
H          10.27300        20.61900         1.83800
H          10.61700        20.55000         0.10500
H          12.29400        19.23000         0.92300
H          10.13200        17.59500        -0.20500
H          11.91100        16.53600        -1.07400
H           9.99100        16.15400         1.58600
H          11.60300        15.56300         1.10100
H          12.71600        16.92400         2.64600
H           8.95800        16.49100         3.69600
H          13.42978        14.61508         7.96314
H          15.46129        15.08851         7.04397
H          15.64157        16.19795         5.70593
O          18.66100        11.94200        13.21500
C          19.84800        11.91300        12.42400
C          19.70700        12.64100        11.07500
O          18.59000        12.07100        10.37800
C          19.51700        14.15100        11.21700
O          20.66900        14.86000        10.74900
C          18.23900        14.40800        10.42400
C          17.79600        13.09300         9.79800
N          16.33200        12.87500         9.93600
C          15.47000        13.17100         8.87900
O          15.88400        13.34200         7.73100
N          14.13699        13.31401         9.08599
C          13.67493        13.19582        10.31802
N          12.41012        13.44838        10.47401
C          14.50305        12.88316        11.42792
C          15.82400        12.70494        11.17505
H          20.10300        10.87200        12.22600
H          20.66400        12.36100        12.99100
H          20.60700        12.45600        10.48700
H          19.34100        14.39100        12.26600
H          17.47900        14.79900        11.10200
H          18.40300        15.13600         9.63100
H          18.05400        13.12700         8.74000
H          11.80155        13.71486         9.67300
H          11.98423        13.58326        11.40509
H          14.13600        12.79494        12.44101
H          16.48900        12.49700        11.99700
H          18.63900        11.15000        13.75800
P          20.85900        16.42900        10.94100
O          22.30900        16.70700        10.84200
O          20.14400        16.88100        12.15000
O          20.13800        17.09700         9.68800
C          20.51700        16.81600         8.34300
C          19.93300        17.86700         7.38200
O          18.51800        17.75500         7.39600
C          20.35000        19.28500         7.79900
O          20.78400        20.06100         6.68500
C          19.07300        19.81100         8.43800
C          17.96400        18.99800         7.78000
N          16.80100        18.75200         8.66700
C          16.75900        18.20500         9.93000
N          15.54500        18.03000        10.39900
C          14.71800        18.48299         9.35700
C          13.28198        18.49201         9.18900
O          12.39001        18.09100         9.93802
N          12.87500        19.01900         7.98400
C          13.72895        19.41704         7.01604
N          13.21606        19.85888         5.91092
N          15.05000        19.41096         7.10398
C          15.48800        18.92900         8.30400
H          20.16600        15.82300         8.06100
H          21.60400        16.84000         8.25900
H          20.29700        17.66100         6.37500
H          21.15300        19.24300         8.53600
H          19.10400        19.62200         9.51100
H          18.92600        20.87500         8.26100
H          17.64600        19.51900         6.87700
H          17.64500        17.92600        10.48100
H          11.80764        19.08834         7.83362
H          12.18945        19.94369         5.74396
H          13.79513        20.22891         5.16111
P          21.37200        21.54200         6.84400
O          22.40900        21.72200         5.80700
O          21.73200        21.77500         8.26400
O          20.15300        22.51400         6.46500
C          19.73400        22.62100         5.10300
C          18.38600        23.32100         4.88800
O          17.33900        22.56200         5.47600
C          18.30400        24.78600         5.34900
O          18.22500        25.71900         4.26500
C          17.03900        24.76600         6.19600
C          16.32700        23.44500         5.90500
N          15.69300        22.90800         7.13700
C          14.29700        22.79900         7.20600
O          13.54100        23.04600         6.26400
N          13.77000        22.40100         8.41600
C          14.49907        22.10602         9.54906
O          13.91989        21.71896        10.56092
C          15.93898        22.28700         9.42301
C          16.81011        22.10925        10.65186
C          16.48600        22.65900         8.23600
H          19.65500        21.61800         4.68100
H          20.49700        23.16200         4.54300
H          18.19800        23.32000         3.81400
H          19.16300        25.02200         5.97800
H          17.31800        24.87200         7.24300
H          16.37200        25.57000         5.91700
H          15.60600        23.58600         5.10000
H          12.68534        22.37877         8.47679
H          16.41789        22.71574        11.46821
H          16.79399        21.06300        10.95799
H          17.83701        22.41099        10.44501
H          17.55500        22.79700         8.16100
P          18.24500        27.32100         4.47200
O          18.63100        27.95600         3.18800
O          19.03800        27.62500         5.69100
O          16.71600        27.71700         4.73100
C          15.75400        27.53800         3.69000
C          14.30100        27.66500         4.16200
O          14.04200        26.66900         5.14000
C          13.91800        29.04900         4.71500
O          13.00700        29.71100         3.83700
C          13.29200        28.70400         6.06400
C          13.17300        27.18000         6.12800
N          13.54200        26.65000         7.46000
C          12.60500        26.12399         8.35900
O          11.39300        26.16201         8.13000
N          13.02000        25.58601         9.53300
C          14.31306        25.58682         9.80690
N          14.67887        25.09244        10.95029
C          15.29300        26.14100         8.94500
C          14.85300        26.68600         7.79000
H          15.87700        26.54400         3.25900
H          15.93500        28.27300         2.90500
H          13.65400        27.45500         3.30900
H          14.81100        29.65800         4.86200
H          13.94400        29.08000         6.85300
H          12.30500        29.12400         6.18700
H          12.15400        26.89300         5.87000
H          13.98333        24.67149        11.61249
H          15.61309        25.22528        11.35998
H          16.34600        26.17400         9.18300
H          15.56200        27.15700         7.12700
P          12.52100        31.23100         4.01700
O          11.73000        31.58000         2.82100
O          13.67400        32.08400         4.37600
O          11.52400        31.20700         5.25600
C          10.23900        30.59000         5.15800
C           9.54300        30.54000         6.52100
O          10.14000        29.57799         7.38401
C           9.47000        31.90300         7.19500
O           8.14100        32.40000         7.15300
C           9.87800        31.48600         8.63500
C           9.84400        29.95900         8.71100
N          10.87900        29.42900         9.65700
C          10.50900        28.77600        10.84200
O           9.32500        28.61800        11.14600
N          11.45600        28.28800        11.69000
C          12.72907        28.41422        11.35907
N          13.62989        27.89043        12.14285
C          13.16200        29.03900        10.16500
C          12.21100        29.56300         9.35800
H          10.34500        29.57300         4.77700
H           9.61900        31.16100         4.46600
H           8.51900        30.20300         6.35000
H          10.17400        32.61700         6.76700
H          10.88600        31.85400         8.82900
H           9.21700        31.89600         9.38900
H           8.84000        29.62300         8.97200
H          13.38523        27.42979        13.05096
H          14.63618        27.91142        11.97119
H          14.20200        29.13200         9.88600
H          12.50600        30.06700         8.45000
P           7.75800        33.83000         7.75200
O           6.55800        34.32700         7.04500
O           8.97500        34.67600         7.76200
O           7.33400        33.48400         9.26700
C           6.33300        32.49200         9.50000
C           6.27800        31.87200        10.90600
O           7.51200        31.30600        11.33000
C           5.78200        32.78200        12.04200
O           4.67900        32.24000        12.78600
C           7.03400        32.79700        12.92400
C           7.56900        31.39100        12.75100
N           8.97200        31.23600        13.19400
C           9.31400        30.44000        14.29300
O           8.49200        29.85100        14.99500
N          10.66000        30.33500        14.57600
C          11.67800        30.94099        13.86900
O          12.83902        30.73102        14.21702
C          11.24400        31.76401        12.73500
C          12.25900        32.45700        11.84300
C           9.92100        31.89100        12.45500
H           6.49000        31.66300         8.81100
H           5.35800        32.92200         9.27100
H           5.56700        31.04700        10.84100
H           5.54800        33.77900        11.66700
H           7.74000        33.53800        12.54600
H           6.81300        33.00000        13.97000
H           6.90400        30.65400        13.20300
H          10.94068        29.74169        15.42387
H          12.86300        33.13500        12.44600
H          11.76500        33.02200        11.05200
H          12.91700        31.71200        11.39700
H           9.62100        32.50100        11.61600
P           3.95900        33.07100        13.98000
O           2.50700        32.79400        13.90000
O           4.38600        34.48300        13.86600
O           4.49500        32.53700        15.41100
C           3.94700        31.38000        16.05600
C           4.32700        31.22200        17.55200
O           5.69700        30.87100        17.68800
C           4.02900        32.45600        18.42400
O           3.47900        32.06600        19.68300
C           5.43400        33.01600        18.60300
C           6.31800        31.76000        18.59900
N           7.66800        32.06900        18.08700
C           7.91900        32.71300        16.91400
N           9.16900        32.77600        16.56300
C           9.81000        32.14700        17.63500
C          11.20400        31.91199        17.86300
O          12.15799        32.20901        17.14900
N          11.46600        31.29600        19.06400
C          10.51100        30.94002        19.95101
N          10.93399        30.32597        21.01996
N           9.20000        31.15000        19.80500
C           8.90700        31.74900        18.60400
H           4.26100        30.48900        15.51200
H           2.85900        31.43600        16.00900
H           3.74000        30.38900        17.94200
H           3.37400        33.15900        17.90800
H           5.65100        33.67100        17.76100
H           5.56300        33.57900        19.52200
H           6.35500        31.31900        19.59500
H           7.13300        33.09900        16.28300
H          12.49943        31.06479        19.27613
H          11.93450        30.11225        21.21121
H          10.28471        30.05513        21.76974
P           2.86500        33.13100        20.72000
O           2.04900        32.37200        21.69400
O           2.22300        34.21900        19.95700
O           4.13200        33.74700        21.50400
C           4.87400        32.93800        22.41100
C           6.23800        33.47300        22.87700
O           7.23100        33.39000        21.85700
C           6.27900        34.89800        23.45100
O           6.97100        34.89200        24.69700
C           7.12600        35.60600        22.39900
C           8.11100        34.49400        22.01800
N           8.84600        34.73100        20.76300
C           8.32300        35.21000        19.59500
N           9.20800        35.44200        18.66400
C          10.41200        35.04500        19.26200
C          11.75100        35.05000        18.74800
O          12.13900        35.48400        17.66500
N          12.67500        34.48799        19.60299
C          12.36401        33.98705        20.82202
N          13.34802        33.44698        21.49101
N          11.14000        33.99399        21.36600
C          10.19600        34.54500        20.52900
H           5.05000        31.96700        21.94500
H           4.25800        32.77100        23.29500
H           6.56200        32.80100        23.67300
H           5.28100        35.32900        23.54100
H           6.49900        35.88600        21.55200
H           7.63200        36.48100        22.80300
H           8.80400        34.30600        22.83900
H           7.27000        35.40700        19.45800
H          13.69704        34.48681        19.27810
H          14.32917        33.42848        21.15045
H          13.20269        32.99194        22.41857
P           6.72700        36.00300        25.82200
O           5.83500        35.38300        26.82800
O           6.31300        37.27800        25.19000
O           8.18200        36.21700        26.47400
C           8.76700        35.22300        27.32200