%chk=1n2w_h.chk
%nprocshared=16
%mem=32GB
#p  ub3lyp genecp scrf=(cpcm,solvent=thf) nosymm 
empiricaldispersion=gd3bj pop=hirshfeld
 
title

0  1
O          12.88200         4.21200         8.37700
C          13.60400         3.94500         7.12400
C          14.49900         5.16200         6.81300
O          13.73000         6.32600         6.49600
C          15.41000         5.51100         8.02200
O          16.80300         5.47900         7.57600
C          15.01900         6.93000         8.28400
C          14.41300         7.46300         6.98000
N          13.39900         8.47400         7.35000
C          13.58400         9.77400         6.83300
O          14.64200        10.17700         6.29000
N          12.56900        10.71000         6.91600
C          11.38000        10.33000         7.43900
N          10.50900        11.26900         7.59100
C          11.17100         9.04700         7.97700
C          12.17300         8.12600         7.90000
H          12.88700         3.79800         6.31600
H          14.21600         3.05000         7.23200
H          15.12600         4.92000         5.95400
H          15.24400         4.86800         8.88600
H          14.28000         6.92900         9.08700
H          15.84800         7.56000         8.59000
H          15.17700         7.81200         6.28500
H          10.69900        12.19700         7.24100
H           9.61800        11.06100         8.01900
H          10.23400         8.75200         8.42700
H          12.00600         7.12400         8.26800
H          12.36300         3.43500         8.59900
P          17.98800         5.39100         8.69400
O          19.16700         4.92700         7.90500
O          17.60000         4.56900         9.90200
O          18.14500         6.92100         9.06800
C          18.67000         7.92200         8.22700
C          18.67000         9.38000         8.71200
O          17.35800         9.97600         8.51600
C          19.19900         9.61300        10.08800
O          20.36500        10.38200        10.08400
C          17.99400        10.29900        10.66200
C          17.26300        10.95400         9.52100
N          15.88100        11.14800         9.75200
C          14.97600        10.29900        10.30800
N          13.77000        10.84000        10.35400
C          13.91500        12.12100         9.72900
C          12.97600        13.22600         9.53000
O          11.78300        13.30100         9.68600
N          13.54600        14.30300         8.90400
C          14.89600        14.33900         8.58200
N          15.23100        15.46700         8.04800
N          15.81300        13.40900         8.82300
C          15.24500        12.29300         9.40400
H          18.13000         7.89600         7.28000
H          19.70700         7.66100         8.01400
H          19.33100         9.91600         8.02900
H          19.38000         8.67300        10.61100
H          17.37700         9.53300        11.13400
H          18.22600        11.04900        11.41400
H          17.77400        11.86800         9.21800
H          15.20700         9.31500        10.68700
H          12.96400        15.09500         8.69300
H          14.53100        16.16800         7.86000
H          16.19900        15.64500         7.82200
P          20.96500        10.96600        11.41200
O          22.45300        10.94800        11.30800
O          20.33600        10.35300        12.62200
O          20.55900        12.55000        11.39300
C          20.60300        13.25600        10.19300
C          20.32000        14.74400        10.23600
O          18.94700        15.01300        10.21400
C          20.82800        15.47300        11.51400
O          21.29600        16.73000        11.17900
C          19.68000        15.31900        12.42600
C          18.56800        15.68600        11.38700
N          17.24100        15.25100        11.75000
C          16.06000        16.05400        11.53000
O          16.16900        17.18100        11.05300
N          14.84900        15.62000        11.92400
C          14.75000        14.35400        12.32900
N          13.54400        13.92300        12.65300
C          15.87500        13.52400        12.42200
C          17.12700        13.97000        12.16300
H          19.90000        12.80800         9.49100
H          21.60300        13.13300         9.77600
H          20.77200        15.19700         9.35300
H          21.66900        14.91100        11.92000
H          19.62600        14.31100        12.82400
H          19.70800        16.03400        13.24700
H          18.58600        16.76100        11.20600
H          12.75700        14.53800        12.59000
H          13.41400        12.96500        12.94600
H          15.77700        12.49300        12.73200
H          17.96100        13.29000        12.22100
P          22.09000        17.67100        12.17500
O          22.72800        18.71600        11.36800
O          22.93000        16.80400        12.99300
O          21.01400        18.36500        13.02700
C          20.06500        19.23100        12.42100
C          18.88500        19.39300        13.37100
O          18.02600        18.26800        13.37300
C          19.15500        19.87800        14.76800
O          18.70700        21.21900        14.88300
C          18.34600        18.84400        15.53100
C          17.27900        18.48600        14.52400
N          16.44400        17.30800        14.86500
C          16.77700        16.08100        15.41900
N          15.79700        15.26900        15.62400
C          14.68900        15.98600        15.18500
C          13.29100        15.69100        15.23000
O          12.72800        14.70000        15.61000
N          12.48400        16.76200        14.97600
C          12.95800        17.96300        14.58400
N          12.12000        18.92100        14.48600
N          14.25400        18.23500        14.53200
C          15.06200        17.21200        14.72500
H          19.71100        18.82400        11.47300
H          20.51800        20.20700        12.24500
H          18.28800        20.17600        12.89900
H          20.20900        19.79900        15.03500
H          18.97200        17.97600        15.74600
H          17.89700        19.19700        16.45200
H          16.62800        19.34900        14.37300
H          17.79500        15.81800        15.66500
H          11.49000        16.61600        15.02700
H          11.14400        18.74800        14.67800
H          12.44700        19.86300        14.32600
P          18.45000        21.93200        16.30600
O          19.00400        23.29800        16.10900
O          18.93100        21.13600        17.43900
O          16.92000        21.98600        16.35700
C          16.12200        22.57400        15.31000
C          14.67200        22.79100        15.71800
O          14.09300        21.54300        15.72600
C          14.66500        23.45900        17.06900
O          13.71700        24.53300        17.13200
C          14.28900        22.28200        17.96100
C          13.58800        21.31300        17.01000
N          13.90000        19.90900        17.43800
C          15.15900        19.35100        17.60600
N          15.08600        18.13600        18.06300
C          13.71900        17.83300        18.09900
C          12.94500        16.66300        18.41000
N          13.46700        15.49600        18.77600
N          11.60700        16.65000        18.14400
C          11.02200        17.84300        17.86900
N          11.56700        19.01700        17.53700
C          12.94600        18.92800        17.70300
H          16.16500        21.94700        14.41800
H          16.54000        23.54900        15.05700
H          14.17500        23.42200        14.98100
H          15.64400        23.85200        17.34700
H          15.19200        21.85300        18.39400
H          13.62000        22.58200        18.75100
H          12.51400        21.50200        17.01900
H          16.08200        19.88600        17.45500
H          12.87200        14.69300        18.92000
H          14.46700        15.40900        18.88400
H           9.95400        17.80900        17.73900
P          13.39300        25.34100        18.50400
O          13.07700        26.75100        18.19800
O          14.44600        25.11000        19.49800
O          12.03900        24.67500        19.03200
C          10.96300        24.52000        18.17500
C           9.74400        23.81500        18.82600
O           9.95800        22.42600        18.78500
C           9.42000        24.34700        20.20600
O           8.05900        24.60700        20.26600
C           9.91400        23.21700        21.04000
C           9.82400        22.00100        20.15400
N          10.91900        21.04100        20.36700
C          12.26800        21.29600        20.55600
N          12.99700        20.26700        20.86300
C          12.05100        19.24700        20.88300
C          12.05900        17.85300        21.17200
N          13.15300        17.10300        21.44300
N          10.91200        17.13500        21.17100
C           9.80500        17.78400        20.92900
N           9.59100        19.05500        20.64500
C          10.78700        19.69900        20.59200
H          11.26800        23.94000        17.30300
H          10.64500        25.50700        17.83700
H           8.89500        24.02100        18.17300
H           9.97200        25.26200        20.42500
H          10.94500        23.42700        21.32100
H           9.33800        23.08400        21.95100
H           8.85400        21.52300        20.27400
H          12.67500        22.29300        20.51600
H          13.05700        16.11300        21.61800
H          14.06100        17.54200        21.49600
H           8.91200        17.17900        20.96400
P           7.32500        25.15100        21.54300
O           6.03800        25.73400        21.08200
O           8.22100        25.91300        22.34100
O           6.93600        23.88300        22.27000
C           6.32400        22.76200        21.66200
C           6.48800        21.45800        22.41000
O           7.84500        20.95500        22.40400
C           6.14600        21.56500        23.88800
O           4.76000        21.18600        24.09700
C           7.12600        20.53400        24.46100
C           7.94300        19.96900        23.40200
N           9.36200        19.71300        23.83700
C           9.72000        18.37700        24.09800
O           8.88400        17.49600        24.16000
N          11.02500        18.16200        24.45400
C          12.01000        19.06700        24.44200
O          13.12100        18.70100        24.65900
C          11.59500        20.43300        24.13200
C          12.61400        21.50100        24.06400
C          10.28600        20.72100        23.93400
H           6.73900        22.60700        20.66600
H           5.26100        22.97200        21.54500
H           5.84800        20.70700        21.94400
H           6.35900        22.55500        24.29000
H           7.74200        21.02900        25.21100
H           6.63100        19.69500        24.92100
H           7.47200        19.05900        23.02800
H          11.27700        17.22200        24.71300
H          12.20700        22.39700        23.59300
H          12.95500        21.73900        25.07200
H          13.47100        21.15900        23.48300
H           9.98100        21.73600        23.72900
P           4.15600        20.97600        25.58200
O           2.71400        20.93400        25.39700
O           4.75300        22.02200        26.40200
O           4.67000        19.51900        26.14700
C           4.25000        18.38900        25.50200
C           4.86500        17.12200        26.03100
O           6.27700        17.21400        25.92100
C           4.46400        16.81600        27.52400
O           4.38900        15.40100        27.50500
C           5.78300        17.27300        28.24000
C           6.80800        16.75900        27.16200
N           8.09200        17.45200        27.28500
C           9.16700        16.59700        27.28800
O           9.11000        15.40200        27.10100
N          10.36500        17.19900        27.53900
C          10.65600        18.55200        27.65700
O          11.85700        18.89600        27.70800
C           9.49100        19.43500        27.44900
C           9.74300        20.94400        27.38200
C           8.23200        18.84300        27.27300
H           4.49600        18.47400        24.44300
H           3.16700        18.30500        25.59400
H           4.52300        16.30300        25.39600
H           3.55600        17.31600        27.86200
H           5.79700        18.35800        28.34300
H           5.92700        16.79300        29.20600
H           6.87000        15.67200        27.17800
H          11.15200        16.59000        27.59500
H          10.66800        21.20700        27.89400
H           9.81400        21.27100        26.35300
H           8.91900        21.47400        27.85900
H           7.36100        19.46600        27.14300
P           3.87400        14.49700        28.68000
O           3.67800        13.13600        28.23800
O           2.70200        15.14300        29.28300
O           5.04000        14.46100        29.81100
C           6.25800        13.68500        29.62500
C           7.41300        13.96200        30.60500
O           8.24200        15.04300        30.17800
C           6.92200        14.21400        31.99500
O           7.50300        13.21500        32.77100
C           7.54300        15.62000        32.27500
C           8.84200        15.54900        31.40700
N           9.71600        16.76800        31.25700
C          11.09400        16.63300        31.15200
N          11.70300        17.79900        30.97900
C          10.68100        18.77200        30.94200
C          10.73900        20.17300        30.75100
O          11.70000        20.91200        30.67500
N           9.46500        20.77700        30.65100
C           8.28800        20.04200        30.65200
N           7.27400        20.90100        30.43500
N           8.22600        18.72000        30.86900
C           9.44800        18.15000        30.99100
O          11.70500        15.58400        31.35100
H           6.63200        13.86500        28.61600
H           5.99800        12.62900        29.69700
H           8.01900        13.05400        30.60600
H           5.83800        14.23100        32.10400
H           6.87800        16.40800        31.92000
H           7.77200        15.75000        33.33300
H           9.46100        14.76800        31.83000
H          12.72000        17.94700        30.92900
H           9.41100        21.80200        30.52300
H           7.45400        21.90800        30.56300
H           6.31200        20.56500        30.59500
P           6.76000        11.96200        33.45000
O           6.30700        10.94900        32.48400
O           5.79800        12.53600        34.38700
O           7.98300        11.28900        34.28400
C           8.48400        11.87300        35.49500
C           9.98900        11.59400        35.48600
O          10.57500        12.51400        34.66200
C          10.66000        11.79600        36.89500
O          11.56700        10.71000        37.21500
C          11.40300        13.12400        36.75500
C          11.72400        13.06000        35.25900
N          11.89900        14.48400        34.85200
C          10.91400        15.41400        34.80800
N          11.33900        16.63700        34.58600
C          12.73900        16.44500        34.30400
C          13.81200        17.35700        33.97300
O          13.74600        18.55000        33.74500
N          14.99600        16.73300        33.81200
C          15.24000        15.44300        34.05300
N          16.49100        15.01300        34.11600
N          14.28900        14.55000        34.38000
C          13.08000        15.11500        34.46100
H           8.01000        11.39500        36.35300
H           8.30900        12.95000        35.51800
H          10.18600        10.58400        35.12500
H           9.90600        11.87000        37.67900
H          10.72100        13.93800        37.00500
H          12.29500        13.17300        37.36700
H          12.60700        12.45300        35.05900
H           9.88700        15.19300        35.05900
H          15.77600        17.31900        33.56300
H          17.25600        15.64600        33.93700
H          16.67200        14.03700        34.29900
P          12.42600        10.54000        38.59600
O          12.47100         9.15500        38.97600
O          12.04200        11.48500        39.64500
O          13.82500        11.04500        37.99700
C          14.32700        10.50400        36.77100
C          15.74400        10.93900        36.47100
O          15.72100        12.29300        36.07500
C          16.51500        10.79900        37.77700
O          17.69600        10.08700        37.45200
C          16.80300        12.22800        38.16800
C          16.63000        13.00500        36.88700
N          16.07200        14.40500        37.13400
C          16.79400        15.57500        36.93500
O          18.00000        15.60200        36.94800
N          16.19400        16.75600        37.06600
C          14.88700        16.82000        37.38700
N          14.30000        18.00400        37.36400
C          14.17100        15.63800        37.73300
C          14.79200        14.47800        37.64000
H          13.68800        10.77800        35.93200
H          14.32900         9.41700        36.85600
H          16.16300        10.31600        35.68000
H          15.96800        10.26900        38.55700
H          16.08500        12.54100        38.92600
H          17.81300        12.35000        38.55500
H          17.58900        13.06400        36.37100
H          14.83100        18.82300        37.10900
H          13.33000        18.09400        37.63200
H          13.14300        15.65000        38.06500
H          14.27600        13.57100        37.90100
P          18.61100         9.35700        38.54000
O          19.49900         8.47000        37.79500
O          17.74700         8.76700        39.49600
O          19.52700        10.43100        39.30800
C          20.48800        11.21600        38.55900
C          21.16800        12.22600        39.45700
O          20.65500        13.52300        39.22600
C          21.11300        11.93500        40.97100
O          22.32800        12.20600        41.60700
C          20.08100        13.00800        41.38600
C          20.29000        14.20000        40.43000
N          19.10400        15.02400        40.05500
C          17.81300        14.65300        40.35300
N          16.94500        15.65000        40.25800
C          17.76500        16.72500        39.94800
C          17.45500        18.09500        39.75600
O          16.35000        18.61600        39.77500
N          18.56300        18.88900        39.47000
C          19.80500        18.46000        39.48500
N          20.63900        19.42800        39.24900
N          20.17700        17.18100        39.63100
C          19.10000        16.38600        39.83900
H          19.98200        11.73800        37.74600
H          21.23700        10.54900        38.13200
H          22.21700        12.24800        39.16000
H          20.78300        10.92900        41.22500
H          22.53300        13.13700        41.49600
H          19.09900        12.56000        41.25200
H          20.20000        13.31300        42.42700
H          21.11600        14.82300        40.77200
H          17.50600        13.65200        40.60800
H          18.39900        19.87500        39.33000
H          20.29700        20.36900        39.11400
H          21.63100        19.24300        39.21000
O          17.61800        28.73700        38.33400
C          18.94600        28.44700        38.78000
C          19.46400        27.15100        38.14000
O          18.74800        25.99500        38.60200
C          19.31600        27.09900        36.64900
O          20.53800        27.58700        36.10400
C          19.03600        25.62100        36.38500
C          19.04900        24.96100        37.70100
N          18.00100        23.90400        37.96700
C          18.39200        22.59100        38.24900
O          19.64700        22.33100        38.24500
N          17.50400        21.64000        38.63600
C          16.23500        22.02400        38.72600
N          15.33300        21.18800        39.14100
C          15.80200        23.33100        38.45200
C          16.68800        24.26200        38.06000
H          18.94900        28.34100        39.86500
H          19.60100        29.27100        38.49700
H          20.51600        27.02400        38.40300
H          18.47800        27.70000        36.29800
H          18.05600        25.52800        35.91500
H          19.78700        25.17900        35.74400
H          20.05600        24.59900        37.90900
H          15.58800        20.23700        39.35000
H          14.37400        21.48900        39.24300
H          14.76400        23.62000        38.53800
H          16.37200        25.27400        37.85000
H          17.27200        27.96900        37.87400
P          20.90400        27.65700        34.54100
O          21.92700        28.66100        34.47000
O          19.61300        27.92900        33.89300
O          21.47800        26.24800        34.10400
C          22.49300        25.71100        34.87500
C          22.51900        24.21200        34.55600
O          21.43500        23.44700        35.15500
C          22.49300        23.81800        33.06600
O          23.53700        22.90100        32.81200
C          21.17600        23.14900        32.90200
C          20.96200        22.47100        34.26000
N          19.57000        22.19500        34.59000
C          18.47000        23.03400        34.37000
N          17.31200        22.58400        34.75300
C          17.68300        21.32400        35.29500
C          16.95000        20.21100        35.79500
O          15.76700        20.12900        36.03500
N          17.63200        19.09500        36.05700
C          18.95600        18.94300        35.87000
N          19.54800        17.85300        36.27900
N          19.75300        19.93700        35.43000
C          19.03500        21.09200        35.12300
H          22.30400        25.84100        35.94100
H          23.44200        26.17300        34.60300
H          23.44800        23.82700        34.98000
H          22.58500        24.68200        32.40700
H          20.42300        23.91700        32.72600
H          21.14200        22.42600        32.08900
H          21.57200        21.57000        34.32500
H          18.57000        24.00600        33.91100
H          17.11700        18.32900        36.45600
H          19.00900        17.10000        36.67300
H          20.54700        17.75600        36.16900
P          23.85300        22.25900        31.42400
O          25.32700        22.12800        31.46800
O          23.11300        22.87400        30.29700
O          23.36400        20.79200        31.65200
C          23.93500        19.90400        32.55900
C          23.37900        18.49700        32.55100
O          22.02400        18.38700        33.02300
C          23.50500        17.91300        31.17400
O          23.96800        16.56600        31.23000
C          22.01700        18.05300        30.74700
C          21.30000        17.67400        32.06500
N          19.90100        18.16300        32.22100
C          18.83400        17.40400        32.73100
O          19.06200        16.35900        33.28600
N          17.51400        17.78400        32.82900
C          17.28900        19.03600        32.41000
N          16.15100        19.61400        32.56200
C          18.37100        19.94100        32.04000
C          19.64700        19.47500        31.97400
H          23.79900        20.30900        33.56200
H          25.00700        19.83300        32.37200
H          24.00200        17.90900        33.22600
H          24.15500        18.50800        30.53000
H          21.81000        19.07500        30.43200
H          21.75100        17.36200        29.94800
H          21.37400        16.60200        32.24700
H          15.36000        19.08200        32.88800
H          16.04400        20.59200        32.33400
H          18.20300        20.98600        31.82300
H          20.44500        20.15100        31.70700
P          24.18300        15.71900        29.95500
O          25.43300        14.90800        30.27600
O          24.21500        16.55400        28.76500
O          22.85100        14.77500        29.92800
C          22.43600        13.92700        30.97800
C          21.11400        13.24200        30.59000
O          20.07700        14.14300        30.81400
C          21.02700        12.66500        29.16400
O          20.58700        11.36700        29.41800
C          20.00500        13.63000        28.59600
C          19.17700        13.96600        29.80000
N          18.22200        15.09500        29.77400
C          18.43200        16.36000        29.34800
N          17.42100        17.12700        29.61400
C          16.42300        16.26700        30.14800
C          15.02600        16.43200        30.54800
O          14.44400        17.51400        30.63400
N          14.35100        15.27600        30.86400
C          14.96600        14.07500        30.91000
N          14.26800        12.96400        31.11100
N          16.28000        13.88000        30.66500
C          16.93500        14.99500        30.23300
H          22.30900        14.49300        31.90100
H          23.19600        13.16100        31.13200
H          20.97400        12.43600        31.31300
H          21.97500        12.68200        28.62600
H          20.50700        14.52300        28.22000
H          19.39600        13.18900        27.81000
H          18.60600        13.06700        30.03600
H          19.36000        16.70700        28.91900
H          13.38600        15.34100        31.11700
H          13.28000        13.01500        31.31400
H          14.72200        12.06500        31.03800
P          19.99300        10.37800        28.29000
O          20.52400         9.03600        28.49400
O          20.31300        10.95200        26.94800
O          18.38300        10.42000        28.49900
C          17.75600         9.96000        29.64700
C          16.22800         9.67600        29.43300
O          15.45900        10.93300        29.37100
C          15.98200         8.91700        28.10300
O          14.92400         7.85900        28.17100
C          15.64900        10.08000        27.16000
C          14.96300        11.10200        28.07900
N          15.16500        12.46900        27.64300
C          16.29700        13.13800        27.32100
N          16.07700        14.36600        26.88900
C          14.74300        14.61800        27.35600
C          13.75700        15.65100        27.28800
N          13.95500        16.84000        26.85700
N          12.48700        15.41700        27.54900
C          12.14200        14.22200        27.97800
N          12.89300        13.16900        28.18200
C          14.15600        13.41500        27.69200
H          17.88500        10.68300        30.45300
H          18.22300         9.02000        29.94300
H          15.86900         9.07800        30.27100
H          16.90400         8.43600        27.77200
H          16.56800        10.48500        26.73900
H          14.98900         9.78800        26.34600
H          13.89900        10.86400        28.09600
H          17.24900        12.64300        27.20600
H          13.18400        17.49000        26.81000
H          14.88000        17.13200        26.57500
H          11.10500        14.11000        28.25400
P          14.47100         7.00400        26.93400
O          14.11600         5.65000        27.39500
O          15.44900         7.13900        25.90400
O          13.18700         7.74900        26.43300
C          12.01200         7.82400        27.29900
C          10.80200         8.52800        26.67800
O          11.16300         9.87500        26.57800
C          10.46800         7.96700        25.28700
O           9.07500         7.55700        25.42500
C          10.72100         9.14500        24.30600
C          10.71400        10.36500        25.30200
N          11.70300        11.32500        24.80600
C          12.99800        11.11600        24.54300
N          13.70200        12.20100        24.19100
C          12.75200        13.20300        24.24100
C          12.73900        14.60400        24.14000
N          13.83000        15.34500        24.01600
N          11.67600        15.31400        24.32200
C          10.60700        14.64800        24.69200
N          10.42500        13.35600        24.83300
C          11.56400        12.68200        24.66400
H          12.27800         8.33900        28.22300
H          11.71000         6.80800        27.55500
H           9.94700         8.43900        27.34900
H          11.08600         7.10500        25.03300
H          11.68500         9.00000        23.81900
H           9.94700         9.26300        23.55600
H           9.71500        10.79600        25.37500
H          13.45800        10.14200        24.61800
H          13.74600        16.35100        24.01700
H          14.74000        14.91100        23.95200
H           9.71400        15.24100        24.78600
P           8.29600         7.04500        24.11300
O           7.12500         6.27700        24.60900
O           9.23600         6.45400        23.15300