%chk=2lar_0_5_teth.chk
%nprocshared=16
%mem=32GB
#p  ub3lyp genecp scrf=(cpcm,solvent=thf) nosymm 
empiricaldispersion=gd3bj pop=hirshfeld
 
title

0  1
O          33.43900        18.29700        19.13000
C          34.50400        17.40200        19.45300
C          35.09800        17.58200        20.86300
O          35.71400        18.86100        20.94100
C          34.06500        17.42100        21.99000
O          34.51800        16.48400        22.96400
C          33.98900        18.83100        22.58900
C          35.25000        19.55300        22.09200
N          34.87200        20.93300        21.78400
C          34.38500        21.27700        20.57900
N          33.83700        22.44900        20.49300
C          33.97700        22.92300        21.81000
C          33.58600        24.09500        22.50300
N          32.92400        25.10200        21.96500
N          33.87400        24.25700        23.79000
C          34.51700        23.28100        24.41100
N          34.92500        22.11300        23.92400
C          34.61900        22.00100        22.60200
H          35.30200        17.53900        18.72300
H          34.13500        16.38100        19.35900
H          35.87400        16.82700        20.99500
H          33.10000        17.11600        21.58300
H          33.08600        19.31300        22.21200
H          33.96900        18.82400        23.67700
H          36.02000        19.52800        22.86300
H          34.43100        20.61400        19.72900
H          32.68700        25.90700        22.52600
H          32.65800        25.06800        20.99100
H          34.73700        23.45500        25.45400
H          33.28600        18.25800        18.18300
P          33.53700        15.81100        24.04300
O          34.22100        14.60200        24.55400
O          32.19900        15.64200        23.43400
O          33.34800        16.84700        25.23900
C          34.38600        17.14600        26.16900
C          33.91500        18.17200        27.21700
O          33.67600        19.41600        26.57000
C          32.62300        17.74200        27.93700
O          32.76300        17.68400        29.35100
C          31.62800        18.81900        27.44500
C          32.55000        20.01100        27.17700
N          31.96200        21.02200        26.27000
C          31.97100        22.37600        26.62700
O          32.54400        22.83500        27.62100
N          31.32400        23.23000        25.76600
C          30.80400        22.89600        24.53500
O          30.24800        23.76500        23.86400
C          30.99900        21.50000        24.15300
C          30.68400        21.03300        22.74700
C          31.52200        20.61800        25.04000
H          35.24900        17.54700        25.63700
H          34.68300        16.23100        26.68300
H          34.70500        18.30800        27.95700
H          32.31800        16.76100        27.57100
H          31.15200        18.46300        26.53200
H          30.86700        19.05000        28.18600
H          32.85000        20.46000        28.12400
H          31.25600        24.19400        26.04100
H          31.31900        21.56600        22.03900
H          30.84500        19.96000        22.64500
H          29.64300        21.25900        22.51700
H          31.67300        19.59200        24.73600
P          31.67200        16.91200        30.23500
O          32.42300        15.97300        31.09800
O          30.63100        16.35900        29.33200
O          30.99400        18.01500        31.16400
C          31.51600        18.31600        32.45600
C          30.75500        19.45500        33.14200
O          31.06900        20.67100        32.50500
C          29.23700        19.22800        33.20600
O          28.78400        18.98100        34.54100
C          28.68800        20.53900        32.64900
C          29.89900        21.43200        32.35700
N          29.87100        21.94400        30.98600
C          30.16700        21.17400        29.91500
N          29.85200        21.71600        28.76700
C          29.37200        22.99100        29.12300
C          28.84900        24.07700        28.33000
O          28.68000        24.14700        27.11200
N          28.46000        25.17500        29.07100
C          28.54600        25.23600        30.42400
N          28.12800        26.33600        30.98900
N          29.01300        24.25600        31.21000
C          29.40000        23.14700        30.49500
H          32.56700        18.59500        32.36800
H          31.44300        17.42700        33.08400
H          31.12400        19.53200        34.16500
H          28.95200        18.40200        32.55400
H          28.12300        20.33200        31.74000
H          28.05200        21.04300        33.36900
H          29.92000        22.25900        33.06600
H          30.55300        20.17300        30.00500
H          28.08600        25.96500        28.57200
H          27.76100        27.08400        30.42300
H          28.15700        26.43000        31.99400
P          27.28100        18.47900        34.85600
O          27.25100        17.94300        36.23800
O          26.84900        17.59800        33.75100
O          26.32800        19.76400        34.79300
C          26.43000        20.82600        35.73000
C          25.65100        22.05900        35.25700
O          26.27500        22.72700        34.16800
C          24.16100        21.88800        35.04000
O          23.58300        22.22200        36.29600
C          23.95700        22.91800        33.92400
C          25.30400        23.46900        33.45800
N          25.48700        23.16700        32.02200
C          25.74000        21.94500        31.46600
N          25.80400        21.94500        30.16100
C          25.47300        23.26500        29.82200
C          25.27300        23.90500        28.54700
O          25.43600        23.45600        27.41200
N          24.82600        25.20500        28.65500
C          24.62100        25.84000        29.83400
N          24.11700        27.03900        29.79300
N          24.81300        25.30000        31.03400
C          25.24100        24.00600        30.96200
H          27.47700        21.10400        35.85400
H          26.03800        20.49700        36.69300
H          25.74900        22.77500        36.07500
H          23.92200        20.87500        34.71400
H          23.49600        22.39200        33.10100
H          23.33200        23.73600        34.26700
H          25.39200        24.53600        33.66600
H          25.90800        21.05800        32.05800
H          24.64900        25.70800        27.80100
H          23.93000        27.47800        28.90700
H          23.90800        27.52600        30.65300
P          22.13800        21.78500        36.76900
O          22.08900        21.96700        38.23700
O          21.79800        20.46700        36.18700
O          21.24900        22.91300        36.11600
C          21.29000        24.24100        36.62800
C          20.59400        25.20500        35.67500
O          21.37600        25.25400        34.49000
C          19.15800        24.72300        35.41100
O          18.20300        25.58500        36.03500
C          19.16200        24.79800        33.87900
C          20.51700        25.28400        33.38000
N          21.01500        24.36300        32.31000
C          21.12900        24.86600        31.00900
O          20.90900        26.04700        30.72200
N          21.47700        23.96700        30.02500
C          21.71500        22.62300        30.21800
O          22.11700        21.95900        29.26700
C          21.48800        22.12900        31.57700
C          21.64700        20.63100        31.84900
C          21.16700        23.00800        32.57300
H          22.32600        24.56000        36.75200
H          20.79300        24.27200        37.59800
H          20.56800        26.20200        36.11600
H          19.01600        23.68700        35.71900
H          18.89300        23.82200        33.47700
H          18.43900        25.52400        33.52600
H          20.42800        26.31200        33.02900
H          21.57800        24.32500        29.08700
H          22.65000        20.31300        31.56200
H          21.48700        20.41200        32.90500
H          20.92300        20.07800        31.25000
H          21.01200        22.64200        33.57600
P          16.59700        25.34800        35.95900
N          18.48600        22.09300        26.62000
C          17.67800        23.17000        26.49600
N          17.30800        23.49900        25.28600
N          17.18400        23.86000        27.51900
C          17.54600        23.32300        28.72800
C          18.33500        22.21800        28.97300
C          18.88900        21.55000        27.82400
O          19.63900        20.57700        27.76400
N          18.38100        21.94000        30.35800
C          17.63900        22.88800        30.87700
N          17.15700        23.76700        29.96100
B          15.67200        26.91900        36.63500
C          16.27800        24.89100        30.24800
C          14.85100        24.39300        30.49100
C          14.43100        24.93900        31.84900
O          13.20300        25.65400        31.73200
C          15.58700        25.88700        32.15500
O          16.73400        25.46800        31.45500
C          15.84200        26.24400        33.61500
O          16.18900        25.13400        34.42300
O          16.36400        24.03200        36.62200
H          18.80900        21.63700        25.78700
H          17.43600        22.96700        31.93500
H          16.03500        27.94500        36.11600
H          15.82900        27.08300        37.81900
H          14.48000        26.87200        36.46500
H          16.29500        25.62700        29.44400
H          14.79800        23.30600        30.51100
H          14.22100        24.79100        29.70200
H          17.63600        22.96300        24.49700
H          16.68000        24.27700        25.14300
H          14.38200        24.14600        32.59600
H          15.31300        26.83300        31.68400
H          16.64100        26.98500        33.65700
H          14.93400        26.69800        34.01100
P          11.78800        24.92000        31.63800
O          10.74600        25.96200        31.81700
O          11.80800        23.77300        32.57400
O          11.67600        24.34000        30.14900
C          11.41900        25.20400        29.04500
C          11.70400        24.57300        27.67400
O          13.06300        24.18300        27.60100
C          10.85500        23.35400        27.31500
O           9.76200        23.77400        26.50900
C          11.82700        22.51000        26.47500
C          13.19600        23.12900        26.67300
N          14.10400        22.08900        27.19300
C          14.88000        21.33900        26.30700
O          14.82800        21.51300        25.08700
N          15.67500        20.35200        26.77000
C          15.62300        20.05000        28.05100
N          16.39700        19.08000        28.42400
C          14.74600        20.68700        28.97200
C          13.97600        21.69700        28.49400
H          12.04700        26.09100        29.13900
H          10.37600        25.52100        29.07800
H          11.54400        25.33400        26.90900
H          10.53700        22.82300        28.21300
H          11.78800        21.47100        26.79500
H          11.59900        22.57200        25.41600
H          13.56200        23.53100        25.72800
H          16.99900        18.62900        27.75200
H          16.38100        18.76200        29.38200
H          14.65800        20.39500        30.00800
H          13.27800        22.19600        29.15000
P           8.56600        22.80900        26.08700
O           7.51000        23.67200        25.51300
O           8.24100        21.94800        27.24700
O           9.15700        21.87800        24.92200
C           9.54400        22.40600        23.65400
C          10.25200        21.33800        22.80200
O          11.39500        20.79800        23.43000
C           9.32000        20.23200        22.30500
O           8.93500        20.34100        20.92700
C          10.21000        19.01700        22.44500
C          11.53100        19.44800        23.02900
N          11.90700        18.66100        24.21800
C          12.95700        17.74500        24.12800
O          13.39200        17.31000        23.06300
N          13.49600        17.31800        25.31600
C          13.05000        17.68400        26.57000
O          13.68100        17.29400        27.54900
C          11.84500        18.52500        26.58500
C          11.25300        18.97100        27.91500
C          11.30400        18.96700        25.41300
H          10.22200        23.24800        23.79700
H           8.66000        22.76100        23.12300
H          10.62200        21.84500        21.91100
H           8.44900        20.14600        22.95700
H           9.71000        18.28800        23.07400
H          10.46200        18.59800        21.48400
H          12.30000        19.38400        22.25900
H          14.28400        16.69300        25.27000
H          10.42600        19.66500        27.76100
H          10.89500        18.09800        28.46100
H          12.02500        19.45700        28.51100
H          10.44300        19.61900        25.43100
P           7.86000        19.33200        20.26000
O           7.75200        19.68400        18.82500
O           6.63500        19.39600        21.09200
O           8.47000        17.83200        20.34700
C           9.48300        17.37100        19.43300
C          10.22800        16.06900        19.83300
O          10.97600        16.19200        21.04500
C           9.27200        14.88900        20.09200
O           9.11600        14.06400        18.94600
C           9.94200        14.08100        21.23800
C          11.18600        14.90000        21.62400
N          11.24700        14.95400        23.11700
C          12.14300        14.16800        23.85400
O          12.94700        13.40600        23.31300
N          12.13600        14.20900        25.21200
C          11.21500        14.93800        25.81600
N          11.29300        15.01400        27.11300
C          10.23900        15.70300        25.12500
C          10.29500        15.67900        23.76800
H          10.23000        18.15500        19.30500
H           9.01400        17.20900        18.46200
H          10.92000        15.79900        19.03400
H           8.29900        15.25400        20.42300
H           8.48100        13.37400        19.15200
H           9.23600        13.96700        22.06300
H          10.25900        13.09500        20.89600
H          12.08400        14.45000        21.20000
H          12.02500        14.52300        27.60300
H          10.62700        15.57200        27.62700
H           9.48100        16.29300        25.62000
H           9.55600        16.21600        23.19600
O          19.99200        10.55100        32.33500
C          19.98000         9.22800        31.81200
C          19.49200         9.13000        30.35600
O          18.11400         9.46300        30.21900
C          20.27500         9.98400        29.35400
O          21.38300         9.32800        28.72800
C          19.21100        10.32700        28.32500
O          19.26100         9.55000        27.14500
C          17.88500        10.04000        28.93400
N          17.07800        11.25200        29.03400
C          17.10600        12.09700        30.07900
N          16.18700        13.03100        30.04300
C          15.55000        12.80000        28.80700
C          14.43200        13.44000        28.16200
O          13.66600        14.30000        28.59100
N          14.20100        12.98600        26.88100
C          14.87100        11.96100        26.30900
N          14.54500        11.67400        25.07700
N          15.82700        11.24800        26.90800
C          16.14000        11.73700        28.15300
H          19.34800         8.60300        32.44300
H          20.99700         8.83700        31.85600
H          19.59600         8.09000        30.04400
H          20.59900        10.90000        29.84800
H          19.29100        11.38400        28.11700
H          20.10800         9.69900        26.71900
H          17.34100         9.31500        28.32600
H          17.78600        11.97700        30.91000
H          13.47000        13.43700        26.35800
H          13.83600        12.21400        24.60400
H          15.01500        10.92300        24.59200
H          19.10900        10.76400        32.64700
P          22.51500        10.15600        27.95700
O          23.58800         9.18700        27.64900
O          22.84000        11.33900        28.78000
O          21.85300        10.63000        26.54800
C          21.84000         9.78300        25.39100
C          20.94100        10.28000        24.23100
O          19.58100        10.44900        24.61000
C          21.31500        11.59200        23.53800
O          22.38400        11.49000        22.59800
C          19.99100        11.83700        22.79100
O          19.79700        10.94000        21.69400
C          18.98600        11.51700        23.87100
N          18.65700        12.64000        24.77000
C          19.06200        12.74500        26.05700
N          18.48700        13.68400        26.76200
C          17.57000        14.22200        25.84400
C          16.52300        15.17600        25.92500
N          16.20800        15.86200        27.00800
N          15.71300        15.39700        24.88600
C          15.93100        14.70300        23.77200
N          16.85600        13.77300        23.54400
C          17.65200        13.57500        24.63400
H          21.48900         8.79400        25.68600
H          22.86000         9.68000        25.02000
H          20.96400         9.49600        23.47300
H          21.50000        12.36700        24.28300
H          19.90200        12.86900        22.48500
H          20.56600        10.99000        21.12200
H          18.05900        11.16700        23.41600
H          19.86100        12.14000        26.44300
H          15.41700        16.48800        26.99600
H          16.74800        15.74600        27.85400
H          15.25800        14.90700        22.95300
P          23.18100        12.79300        22.12400
O          24.14000        12.39800        21.06700
O          23.70600        13.42900        23.34400
O          22.08700        13.79400        21.49800
C          21.50000        13.57400        20.21500
C          20.29100        14.48800        19.92400
O          19.22300        14.34400        20.84100
C          20.60800        15.97900        19.88400
O          21.32700        16.36100        18.71900
C          19.21100        16.58400        20.00600
O          18.45800        16.55000        18.79500
C          18.60000        15.61200        20.99700
N          18.75400        16.10100        22.36500
C          19.67700        15.66000        23.23800
N          19.64700        16.22400        24.41100
C          18.57500        17.11600        24.30100
C          18.01500        18.03100        25.25500
O          18.35400        18.24400        26.42100
N          16.95700        18.75200        24.74800
C          16.48700        18.63300        23.48200
N          15.56600        19.49100        23.13700
N          16.97200        17.79600        22.55800
C          18.02200        17.05600        23.03600
H          21.17100        12.53800        20.14200
H          22.25800        13.74000        19.44900
H          19.90500        14.21100        18.94200
H          21.18100        16.22900        20.77800
H          19.23900        17.58700        20.41000
H          17.70400        17.13800        18.88500
H          17.53300        15.51300        20.79800
H          20.41300        14.91400        22.98900
H          16.54500        19.44800        25.34500
H          15.23000        20.16600        23.80600
H          15.19300        19.48100        22.19800
P          22.30700        17.61600        18.72200
O          22.90900        17.71300        17.37900
O          23.19100        17.48400        19.90500
O          21.36300        18.88700        18.92500
C          20.41700        19.26500        17.93200
C          19.37500        20.26900        18.45700
O          18.49000        19.74400        19.45900
C          19.95300        21.58000        18.99300
O          20.19600        22.53700        17.97700
C          18.78100        22.02500        19.85600
O          17.74300        22.56400        19.04900
C          18.26300        20.75000        20.44800
N          18.90500        20.47500        21.74700
C          18.49000        21.14700        22.90400
O          17.55000        21.94100        22.88400
N          19.15100        20.96200        24.07500
C          20.24700        20.22500        24.06800
N          20.88100        20.05500        25.19300
C          20.72700        19.59600        22.89500
C          20.00800        19.69800        21.77700
H          19.89100        18.38200        17.57000
H          20.94800        19.71300        17.09100
H          18.74400        20.52700        17.60500
H          20.83900        21.39000        19.60100
H          19.07100        22.73000        20.62000
H          18.13300        23.18800        18.43200
H          17.19000        20.84100        20.61900
H          20.53400        20.48500        26.03700
H          21.71400        19.48500        25.22100
H          21.62200        18.99100        22.87900
H          20.35800        19.19800        20.90700
P          21.12800        23.79100        18.22300
O          21.17700        24.56800        16.97000
O          22.39900        23.36000        18.83600
O          20.36500        24.64200        19.31500
C          19.20900        25.41000        19.01400
C          18.62400        25.96500        20.31800
O          18.38600        24.96500        21.30800
C          19.61400        26.94800        20.92200
O          19.59400        28.18300        20.23300
C          19.10600        26.97200        22.36800
O          17.91800        27.73800        22.58100
C          18.77800        25.48800        22.57300
N          19.91100        24.76700        23.20100
C          20.60400        23.69800        22.71100
N          21.39400        23.10700        23.56700
C          21.16300        23.83200        24.74700
C          21.55000        23.68300        26.10200
N          22.32000        22.71300        26.54400
N          21.09900        24.50900        27.05200
C          20.28600        25.48400        26.67400
N          19.81300        25.74200        25.45500
C          20.28200        24.85600        24.52700
H          18.46200        24.80900        18.50300
H          19.48400        26.23700        18.35800
H          17.68800        26.48200        20.10500
H          20.61400        26.51300        20.91200
H          19.88800        27.30100        23.04700
H          17.71100        27.72400        23.51900
H          17.93200        25.40900        23.25600
H          20.54600        23.38000        21.68700
H          22.52900        22.64500        27.52800
H          22.70300        22.03900        25.89700
H          19.95100        26.14700        27.45800
P          20.91800        29.03300        20.05000
O          20.55700        30.20900        19.22700
O          21.98600        28.13100        19.56500
O          21.33800        29.52000        21.50100
C          20.62400        30.54500        22.16200
C          20.95500        30.58300        23.65600
O          20.66800        29.34400        24.28900
C          22.38800        30.96300        24.04500
O          22.55000        32.37200        23.97900
C          22.37000        30.45700        25.49500
O          21.66900        31.34200        26.36100
C          21.58800        29.15600        25.36000
N          22.48500        27.98300        25.14300
C          23.14100        27.42700        26.24500
O          23.10200        27.97100        27.34900
N          23.84200        26.27600        26.12000
C          23.91700        25.70300        24.93500
N          24.56200        24.57400        24.87000
C          23.30700        26.23900        23.77400
C          22.60600        27.39000        23.91600
H          19.55400        30.36400        22.05600
H          20.86400        31.50800        21.71100
H          20.29100        31.32600        24.10200
H          23.11400        30.42100        23.43600
H          23.37800        30.28400        25.86500
H          22.07300        32.21100        26.29800
H          21.02000        28.98100        26.27400
H          24.97700        24.18400        25.70200
H          24.62600        24.07900        23.99200
H          23.37100        25.77400        22.80100
H          22.12200        27.81100        23.05300
P          23.95400        33.05500        23.71800
O          23.70500        34.51200        23.71200
O          24.57400        32.43800        22.52800
O          24.81300        32.69100        25.01300
C          24.57000        33.40200        26.21700
C          25.21200        32.81100        27.47500
O          24.78300        31.48500        27.79200
C          26.73500        32.73700        27.47500
O          27.31600        34.03200        27.53300
C          26.96400        31.83900        28.68400
O          26.70900        32.47900        29.93000
C          25.87600        30.79000        28.41300
N          26.33500        29.62700        27.58500
C          26.93400        28.53800        28.23400
O          27.24400        28.59100        29.42300
N          27.20400        27.39100        27.56300
C          26.89100        27.32700        26.28300
N          27.21000        26.21600        25.68300
C          26.31300        28.40500        25.55800
C          26.08000        29.55500        26.23500
H          23.49400        33.44700        26.39000
H          24.93000        34.42400        26.09600
H          24.91400        33.45300        28.30500
H          27.06200        32.22100        26.57100
H          27.95400        31.39200        28.67200
H          26.88300        31.85200        30.63600
H          25.52700        30.39800        29.36900
H          27.64900        25.47200        26.20300
H          27.01400        26.09900        24.69900
H          26.08800        28.35700        24.50200
H          25.65900        30.39800        25.71300
P          28.75800        34.30900        26.94200
O          29.14100        35.70200        27.24700
O          28.83000        33.84700        25.54000
O          29.71400        33.37500        27.77600
C          29.98100        33.61900        29.14600
C          30.86000        32.50900        29.72400
O          30.18600        31.26300        29.79900
C          32.11600        32.29300        28.88600
O          33.10000        33.27400        29.15800
C          32.50200        30.88000        29.31900
O          33.15000        30.82500        30.58500
C          31.11300        30.24900        29.44100
N          30.71900        29.60600        28.19300
C          29.97700        30.11600        27.18300
N          29.75000        29.28500        26.20100
C          30.43500        28.12800        26.61800
C          30.67300        26.84000        26.08200
N          30.25600        26.44100        24.89500
N          31.41800        25.95300        26.75000
C          31.90600        26.30900        27.93200
N          31.78500        27.46700        28.55900
C          31.02300        28.32900        27.83700
H          29.05100        33.67100        29.71000
H          30.50500        34.57000        29.24600
H          31.15800        32.79000        30.73500
H          31.86400        32.28100        27.82500
H          33.10500        30.38000        28.56400
H          33.38300        29.91200        30.76800
H          31.12700        29.49000        30.22300
H          29.58000        31.11400        27.18700
H          30.48100        25.51400        24.56800
H          29.71900        27.06700        24.31200
H          32.50500        25.56500        28.43600
P          34.21600        33.62000        28.09500
O          35.09200        34.63900        28.72000
O          33.52500        33.94500        26.82100
O          35.02600        32.24800        27.91900
C          35.93700        31.80900        28.92200
C          36.58400        30.44300        28.65300
O          35.65000        29.35700        28.64100
C          37.21500        30.38400        27.27400
O          38.45500        31.05800        27.13200
C          37.23200        28.93400        26.86400
O          38.40100        28.21700        27.24100
C          35.97500        28.44800        27.57600
N          34.91700        28.28400        26.54200
C          34.81900        27.04700        25.89200
O          35.42400        26.03500        26.25600
N          33.99700        26.98400        24.79200
C          33.21900        28.00600        24.30700
O          32.56800        27.83900        23.27700
C          33.28100        29.22100        25.09700
C          34.14200        29.33800        26.14200
H          35.43000        31.76800        29.88400
H          36.73700        32.54600        29.00200
H          37.34600        30.24400        29.40700
H          36.53300        30.87000        26.57700
H          39.06700        30.71000        27.78400
H          37.12200        28.86700        25.78000