%chk=6XAHconst.chk
%nprocshared=16
%mem=32GB
#p  ub3lyp genecp scrf=(cpcm,solvent=thf) nosymm 
empiricaldispersion=gd3bj pop=hirshfeld
 
title

0  1
O           5.88100        19.74600        15.57600
C           5.57800        20.52600        16.72700
C           4.18200        21.16800        16.68000
O           4.20200        22.22300        15.73900
C           3.06500        20.19800        16.28100
O           1.90400        20.40600        17.09800
C           2.80100        20.54200        14.82900
C           3.15600        22.03900        14.79500
N           3.58800        22.49800        13.44500
C           2.80300        23.44800        12.77300
O           1.73800        23.88100        13.22100
N           3.27800        23.91100        11.57000
C           4.42800        23.49200        10.95100
O           4.74400        24.00900         9.87900
C           5.17800        22.46200        11.67700
C           6.47900        21.90800        11.11500
C           4.74300        22.00800        12.88300
H           6.32900        21.30800        16.83700
H           5.63000        19.87700        17.60100
H           3.96400        21.58300        17.66500
H           3.40800        19.16800        16.37400
H           3.46300        19.96300        14.18500
H           1.76300        20.37900        14.54400
H           2.29000        22.60200        15.14200
H           2.74300        24.62900        11.11100
H           6.92100        21.17900        11.79500
H           6.28100        21.43200        10.15400
H           7.18200        22.72600        10.95800
H           5.31700        21.26500        13.41600
H           6.75900        19.37200        15.68200
P           0.83600        19.22200        17.39500
O          -0.04700        19.67600        18.50200
O           1.57500        17.94100        17.54500
O          -0.01700        19.15000        16.02900
C          -1.18300        19.94100        15.80400
C          -1.69700        19.85700        14.34900
O          -0.92400        20.68300        13.48100
C          -1.63500        18.41800        13.77300
O          -2.82700        17.97000        13.16500
C          -0.58400        18.54800        12.70100
C          -0.77700        19.97900        12.26600
N           0.34400        20.49400        11.45200
C           1.63800        20.02500        11.41600
N           2.39600        20.56400        10.49600
C           1.51100        21.45500         9.86600
C           1.60400        22.33200         8.75000
N           2.66800        22.53000         7.98600
N           0.54000        23.01600         8.33300
C          -0.59800        22.87100         8.99000
N          -0.84300        22.10300        10.04900
C           0.25900        21.41300        10.43600
H          -0.96600        20.98400        16.03900
H          -1.97100        19.59200        16.47200
H          -2.72500        20.21600        14.31900
H          -1.31900        17.68700        14.51800
H           0.39500        18.39600        13.15600
H          -0.74100        17.84400        11.88600
H          -1.70300        20.05500        11.69700
H           2.01700        19.27300        12.09100
H           2.61600        23.16400         7.20300
H           3.53200        22.04900         8.19000
H          -1.43300        23.44900         8.62400
P          -4.11700        17.50300        14.01200
O          -4.28300        18.37100        15.19200
O          -4.03600        16.03100        14.21400
O          -5.31200        17.80200        12.98600
C          -5.62500        19.13000        12.57100
C          -5.37400        19.38000        11.06700
O          -3.99800        19.53300        10.74300
C          -5.93100        18.28700        10.13300
O          -7.21000        18.67700         9.64300
C          -4.84700        18.18000         9.06400
C          -3.91400        19.34300         9.34900
N          -2.51300        19.12500         8.90000
C          -1.99400        20.01500         7.94200
O          -2.63100        20.90300         7.37200
N          -0.69400        19.79600         7.55100
C           0.13500        18.78700         7.99700
O           1.29400        18.76000         7.59600
C          -0.50000        17.84100         8.91000
C           0.27900        16.60700         9.38900
C          -1.78700        18.03600         9.32100
H          -5.06000        19.86000        13.15200
H          -6.68400        19.29600        12.76600
H          -5.86200        20.32100        10.80900
H          -6.01100        17.33700        10.66000
H          -4.34000        17.22100         9.16100
H          -5.25700        18.28600         8.06300
H          -4.33100        20.23000         8.87100
H          -0.29500        20.46100         6.90800
H           0.59900        16.02500         8.52500
H           1.16300        16.93000         9.93900
H          -0.34200        15.98500        10.03400
H          -2.24000        17.33300        10.00500
P          -8.15900        17.70000         8.77000
O          -9.52900        18.27700         8.78800
O          -7.97100        16.30200         9.22700
O          -7.60200        17.80500         7.25800
C          -7.83200        18.95700         6.46500
C          -7.15100        18.89200         5.09500
O          -5.75900        19.13600         5.21500
C          -7.34300        17.54100         4.37000
O          -7.99300        17.75100         3.12300
C          -5.91400        17.03700         4.24100
C          -5.09000        18.30800         4.27500
N          -3.72100        18.01600         4.73100
C          -3.36300        17.39800         5.90300
N          -2.08900        17.14500         6.01400
C          -1.55200        17.63400         4.81700
C          -0.20000        17.66400         4.31200
O           0.84100        17.28100         4.84600
N          -0.10500        18.22800         3.05600
C          -1.16400        18.71400         2.34500
N          -0.91700        19.24900         1.17100
N          -2.42300        18.69300         2.75600
C          -2.55200        18.15900         4.01400
H          -7.47400        19.84000         6.99500
H          -8.90600        19.06200         6.30700
H          -7.57100        19.68400         4.47300
H          -7.93400        16.84800         4.97000
H          -5.69200        16.39500         5.09400
H          -5.74900        16.49500         3.31300
H          -5.09200        18.78200         3.29300
H          -4.07700        17.11400         6.65800
H           0.81000        18.27800         2.64000
H          -1.67500        19.62200         0.61800
H           0.02600        19.29200         0.82300
P          -8.41100        16.55600         2.12700
O          -9.66600        16.95200         1.44200
O          -8.37800        15.25400         2.84800
O          -7.21700        16.53800         1.03600
C          -7.04600        17.61900         0.12700
C          -5.92400        17.37600        -0.88200
O          -4.65700        17.37800        -0.23300
C          -6.09300        16.06200        -1.67500
O          -6.09700        16.33800        -3.08000
C          -4.91700        15.21800        -1.20600
C          -3.92700        16.24800        -0.67200
N          -3.12900        15.74000         0.47500
C          -1.73900        15.78300         0.40000
O          -1.11100        16.16000        -0.58800
N          -1.04400        15.36800         1.51300
C          -1.59700        14.88900         2.67500
O          -0.85500        14.58500         3.60600
C          -3.06500        14.79600         2.66500
C          -3.79400        14.20400         3.86500
C          -3.77300        15.24700         1.59800
H          -6.82800        18.52900         0.68600
H          -7.97400        17.76800        -0.42600
H          -5.93200        18.20700        -1.58800
H          -7.03000        15.57500        -1.40400
H          -5.26000        14.53400        -0.43100
H          -4.46600        14.64600        -2.01200
H          -3.28300        16.55900        -1.49500
H          -0.04200        15.44500         1.48100
H          -3.57000        14.79100         4.75400
H          -4.87100        14.19000         3.69900
H          -3.44500        13.18400         4.02800
H          -4.85100        15.19900         1.61600
P          -6.42300        15.20900        -4.18500
O          -6.81500        15.91500        -5.43600
O          -7.32900        14.20800        -3.59000
O          -4.99300        14.50800        -4.45900
C          -3.96800        15.19900        -5.15700
C          -2.60600        14.48100        -5.10900
O          -2.09400        14.48600        -3.78000
C          -2.64200        13.02800        -5.60400
O          -1.91700        12.90900        -6.82400
C          -1.98600        12.25800        -4.46400
C          -1.26000        13.33500        -3.66200
N          -1.07900        12.95900        -2.23900
C           0.20200        12.82200        -1.68300
O           1.22400        13.00400        -2.33900
N           0.35200        12.46800        -0.38600
C          -0.73000        12.24500         0.33700
N          -0.54500        11.92200         1.58600
C          -2.04900        12.31800        -0.17900
C          -2.17900        12.68600        -1.47400
H          -3.84500        16.19200        -4.72400
H          -4.26600        15.31300        -6.20000
H          -1.90600        15.04000        -5.73200
H          -3.67200        12.69600        -5.74000
H          -2.76300        11.77100        -3.87600
H          -1.28000        11.51100        -4.82100
H          -0.30200        13.54600        -4.13800
H           0.38800        11.86900         1.96000
H          -1.33900        11.73200         2.18100
H          -2.93300        12.11500         0.40900
H          -3.16700        12.76600        -1.90100
P          -2.05700        11.61900        -7.80000
O          -1.59300        12.03700        -9.14700
O          -3.41700        11.03800        -7.64800
O          -1.00500        10.55200        -7.22300
C           0.38200        10.77000        -7.34100
C           1.20300         9.80300        -6.46500
O           1.02600        10.13300        -5.11000
C           0.88200         8.31300        -6.65300
O           1.89000         7.71900        -7.46300
C           0.85900         7.79300        -5.21200
C           1.32500         8.98200        -4.37000
N           0.66600         9.04400        -3.03600
C           1.48200         9.13900        -1.91000
O           2.71000         9.21100        -1.94500
N           0.85300         9.14300        -0.69500
C          -0.49100         9.01800        -0.47000
O          -0.89200         8.93600         0.69100
C          -1.30300         8.99800        -1.68400
C          -2.82800         8.89400        -1.58600
C          -0.71800         9.01400        -2.91700
H           0.61800        11.79200        -7.04100
H           0.67400        10.63800        -8.38300
H           2.25800         9.95600        -6.69600
H          -0.09900         8.18800        -7.11100
H          -0.15500         7.48200        -4.96400
H           1.53800         6.95300        -5.07000
H           2.40800         8.91700        -4.27000
H           1.44000         9.24300         0.11700
H          -3.21500         9.74700        -1.02900
H          -3.28100         8.87800        -2.57800
H          -3.09400         7.98200        -1.05200
H          -1.33100         8.98700        -3.80600
P           1.77400         6.22600        -8.06100
O           2.65800         6.16200        -9.24700
O           0.34100         5.87300        -8.22700
O           2.42100         5.27600        -6.93600
C           3.76700         5.46900        -6.48800
C           4.29200         4.33700        -5.59700
O           3.64800         4.29000        -4.33400
C           4.15400         2.94100        -6.24000
O           5.40100         2.61500        -6.85500
C           3.81800         2.07000        -5.03600
C           3.80700         2.98800        -3.81300
N           2.62000         2.70800        -2.98300
C           1.32900         2.81400        -3.40300
N           0.44800         2.53100        -2.47000
C           1.24900         2.20700        -1.35100
C           0.99000         1.87200         0.01800
N          -0.23500         1.80600         0.54400
N           2.04400         1.66700         0.84400
C           3.27400         1.77300         0.37400
N           3.64800         2.08600        -0.86300
C           2.57700         2.30300        -1.67200
H           3.83400         6.41100        -5.94300
H           4.41900         5.53300        -7.36000
H           5.35500         4.52700        -5.44100
H           3.33700         2.91600        -6.96200
H           2.85400         1.59000        -5.20700
H           4.57200         1.30600        -4.87200
H           4.72800         2.90500        -3.25200
H           1.12200         3.10900        -4.40000
H          -1.02100         2.08700        -0.06300
H           4.05100         1.58800         1.07000
P           5.64100         1.23500        -7.63400
O           6.68700         1.46100        -8.67600
O           4.33600         0.65500        -8.03500
O           6.27200         0.29000        -6.49900
C           7.50600         0.64000        -5.85700
C           7.83800        -0.27200        -4.66800
O           6.84000        -0.16200        -3.64700
C           8.04300        -1.74400        -5.05600
O           9.31400        -2.19300        -4.58700
C           6.86700        -2.43300        -4.35700
C           6.26100        -1.42100        -3.39400
N           4.78800        -1.32900        -3.53200
C           4.00500        -1.29500        -4.66600
N           2.72200        -1.22000        -4.43800
C           2.65600        -1.27700        -3.03300
C           1.60700        -1.28100        -2.08600
N           0.32000        -1.23000        -2.36500
N           1.84800        -1.37100        -0.78000
C           3.10900        -1.47400        -0.39100
N           4.20400        -1.48300        -1.14200
C           3.90400        -1.37500        -2.47300
H           7.44200         1.66500        -5.49000
H           8.31700         0.58500        -6.58400
H           8.77200         0.09800        -4.24300
H           7.97600        -1.87500        -6.13700
H           6.14900        -2.74600        -5.11400
H           7.17200        -3.30800        -3.79800
H           6.51800        -1.71700        -2.37700
H           4.41500        -1.28800        -5.66400
H          -0.36000        -1.25100        -1.61800
H           0.01400        -1.17300        -3.32600
H           3.26800        -1.55100         0.67400
P           9.85700        -3.70800        -4.79800
O          11.33400        -3.68600        -4.67900
O           9.26200        -4.25600        -6.05200
O           9.24900        -4.53600        -3.53900
C           9.56400        -4.13500        -2.21600
C           8.67800        -4.76400        -1.14200
O           7.31200        -4.38400        -1.30700
C           8.78500        -6.30000        -1.11100
O           9.04800        -6.69700         0.22300
C           7.42700        -6.72700        -1.66300
C           6.51500        -5.56200        -1.29100
N           5.38700        -5.37600        -2.23300
C           5.40500        -5.38900        -3.60600
N           4.24200        -5.17400        -4.16200
C           3.39000        -5.00200        -3.06400
C           1.97900        -4.73900        -3.00900
O           1.17200        -4.59000        -3.92000
N           1.50300        -4.63400        -1.71300
C           2.26400        -4.80400        -0.59800
N           1.67000        -4.69900         0.55500
N           3.57300        -5.06200        -0.60400
C           4.08500        -5.13500        -1.87600
H           9.45700        -3.05300        -2.13600
H          10.60400        -4.38700        -2.00900
H           9.01400        -4.37400        -0.18000
H           9.58600        -6.65600        -1.76000
H           7.50400        -6.84000        -2.74400
H           7.06900        -7.65000        -1.21600
H           6.14400        -5.72000        -0.27800
H           6.30200        -5.55700        -4.18300
H           0.52100        -4.44700        -1.59800
H           2.19800        -4.81700         1.40800
H           0.68300        -4.50300         0.59600
P           9.11900        -8.23100         0.69300
O          10.15200        -8.33600         1.75200
O           9.17100        -9.13000        -0.49200
O           7.66900        -8.38600         1.39000
C           7.30400        -7.54100         2.48500
C           5.93400        -7.85800         3.12900
O           4.88700        -7.52800         2.23600
C           5.80600        -9.34400         3.52000
O           5.17600        -9.45000         4.79200
C           4.95300        -9.87400         2.37600
C           4.09100        -8.66700         1.99500
N           3.59700        -8.62100         0.58300
C           2.27000        -8.23700         0.35000
O           1.45600        -7.98800         1.23200
N           1.87100        -8.13800        -0.97300
C           2.67000        -8.34600        -2.07500
O           2.17200        -8.16500        -3.18800
C           4.04100        -8.73900        -1.76500
C           5.05500        -8.97800        -2.87000
C           4.45100        -8.86100        -0.47000
H           7.29200        -6.50400         2.14800
H           8.06400        -7.63400         3.26100
H           5.83300        -7.24200         4.02300
H           6.78200        -9.83100         3.54300
H           5.60500       -10.18300         1.56100
H           4.33400       -10.71700         2.67400
H           3.25100        -8.63700         2.68800
H           0.92300        -7.84300        -1.14100
H           6.01700        -9.29300        -2.46600
H           4.68100        -9.76200        -3.52900
H           5.18000        -8.07300        -3.46000
H           5.47900        -9.12000        -0.26900
P           5.00500       -10.85000         5.58700
O           4.86000       -10.54500         7.03000
O           6.07500       -11.78600         5.15900
O           3.59400       -11.38400         5.02400
C           2.37800       -10.71400         5.32100
C           1.25200       -11.13400         4.37400
O           1.49300       -10.73200         3.01700
C           0.95900       -12.64800         4.36800
O          -0.37500       -12.84000         4.84200
C           1.12200       -13.00700         2.89800
C           0.86600       -11.68300         2.19300
N           1.34700       -11.56900         0.80200
C           0.44400       -11.15500        -0.19000
O          -0.71900       -10.82200         0.03500
N           0.90000       -11.19400        -1.48300
C           2.12600       -11.66000        -1.90600
O           2.37200       -11.66200        -3.12700
C           3.00900       -12.08900        -0.82800
C           4.39300       -12.65500        -1.12500
C           2.61100       -11.98900         0.46700
H           2.52100        -9.63700         5.22200
H           2.08900       -10.93500         6.34900
H           0.34900       -10.61600         4.70100
H           1.66900       -13.19800         4.98700
H           2.13900       -13.36000         2.73400
H           0.41300       -13.76700         2.58200
H          -0.20800       -11.49900         2.23200
H           0.27500       -10.85500        -2.19400
H           4.93000       -12.88400        -0.20400
H           4.29000       -13.56300        -1.71900
H           4.96400       -11.92700        -1.70100
H           3.28700       -12.30000         1.24800
P          -1.01000       -14.30000         5.08700
O          -1.82800       -14.24800         6.32400
O           0.05400       -15.32900         4.97100
O          -2.00400       -14.43800         3.81800
C          -3.16400       -13.63400         3.71400
C          -3.94900       -13.86500         2.41200
O          -3.22500       -13.38500         1.28300
C          -4.27600       -15.35700         2.15700
O          -5.66500       -15.50200         1.85100
C          -3.38100       -15.68400         0.96500
C          -3.33800       -14.34300         0.24200
N          -2.17100       -14.27100        -0.66300
C          -2.36500       -14.18300        -2.05000
O          -3.48600       -14.03100        -2.54800
N          -1.31100       -14.24100        -2.90300
C          -0.11100       -14.40000        -2.39500
N           0.85100       -14.49000        -3.27400
C           0.14700       -14.48000        -0.99600
C          -0.90200       -14.39000        -0.16300
H          -2.88100       -12.58200         3.76700
H          -3.82200       -13.85600         4.55500
H          -4.88400       -13.30700         2.47800
H          -4.02000       -15.97600         3.01800
H          -2.39700       -15.98300         1.32800
H          -3.79300       -16.45900         0.32100
H          -4.27600       -14.18700        -0.29100
H           0.64000       -14.44900        -4.25900
H           1.80600       -14.61000        -2.96700
H           1.13900       -14.60000        -0.58400
H          -0.74800       -14.45300         0.90200
P          -6.36500       -16.92900         1.56800
O          -7.64100       -16.94800         2.33900
O          -5.38700       -18.02200         1.76500
O          -6.70500       -16.79600        -0.00500
C          -7.59200       -15.77600        -0.47400
C          -8.08100       -15.96700        -1.91900
O          -7.00200       -15.74300        -2.81700
C          -8.65600       -17.36500        -2.19100
O          -9.84700       -17.22100        -2.97300
C          -7.49600       -18.06100        -2.91200
C          -6.74800       -16.91500        -3.57600
N          -5.28800       -17.11300        -3.59400
C          -4.46900       -17.44500        -2.54700
N          -3.19400       -17.44700        -2.84300
C          -3.19600       -17.17000        -4.21900
C          -2.20200       -17.01800        -5.22400
N          -0.90000       -17.10500        -5.01700
N          -2.53600       -16.76800        -6.49700
C          -3.81900       -16.61500        -6.79600
N          -4.85900       -16.68800        -5.97400
C          -4.47200       -16.95600        -4.69100
H          -7.09800       -14.80700        -0.39100
H          -8.47400       -15.76000         0.16600
H          -8.84900       -15.21700        -2.11100
H          -8.89100       -17.87600        -1.25700
H          -6.87400       -18.57200        -2.17700
H          -7.85100       -18.77400        -3.65100
H          -7.13300       -16.77400        -4.58600
H          -4.83200       -17.63100        -1.54800
H          -0.25800       -16.99000        -5.78600
H          -0.54800       -17.28800        -4.08800
H          -4.04400       -16.41000        -7.83200
P         -10.81700       -18.45200        -3.35700
O         -12.17200       -17.92500        -3.62200
O         -10.65200       -19.53300        -2.35600
O         -10.21300       -18.97600        -4.75100
C         -10.29100       -18.18200        -5.92500
C          -9.40800       -18.73500        -7.06500
O          -8.02800       -18.62600        -6.72900
C          -9.70900       -20.20400        -7.38000
O         -10.44000       -20.26100        -8.60300
C          -8.31100       -20.83800        -7.44200
C          -7.35600       -19.66300        -7.41400
N          -6.08700       -19.97100        -6.69200
C          -4.88500       -19.85200        -7.40400
O          -4.81300       -19.58100        -8.60400
N          -3.73000       -20.08100        -6.70700
C          -3.64400       -20.40400        -5.37000
O          -2.53800       -20.52600        -4.86300
C          -4.93700       -20.55600        -4.68900
C          -4.97400       -20.94900        -3.22500
C          -6.10000       -20.33600        -5.35400
H          -9.96400       -17.16600        -5.70000
H         -11.32700       -18.14700        -6.26300
H          -9.58000       -18.13700        -7.96100
H         -10.28800       -20.66700        -6.58000
H          -8.17300       -21.49700        -6.58500
H          -8.16800       -21.39100        -8.36500
H          -7.17000       -19.33700        -8.43700
H          -2.86500       -19.97900        -7.21000
H          -4.39700       -20.23500        -2.63900
H          -5.99900       -20.97600        -2.85500
H          -4.52200       -21.93400        -3.10700
H          -7.04500       -20.44900        -4.84400
P         -11.00900       -21.63500        -9.21600
O         -12.19000       -21.27600       -10.06000
O         -11.18900       -22.61300        -8.11300
O          -9.81400       -22.15000       -10.16200
C          -9.40600       -21.39900       -11.29700
C          -8.18000       -21.98900       -12.01700
O          -7.00200       -21.77600       -11.22900
C          -8.29900       -23.50400       -12.30900
O          -7.82700       -23.75500       -13.63400
C          -7.41500       -24.05500       -11.18100
C          -6.31000       -23.01200       -11.10700
N          -5.53000       -23.05400        -9.83800
C          -4.13000       -22.98400        -9.87500
O          -3.50100       -22.79100       -10.91400
N          -3.39800       -23.12800        -8.73900
C          -4.04000       -23.33400        -7.61200
N          -3.30600       -23.45300        -6.55100
C          -5.44700       -23.43300        -7.52000
C          -6.16100       -23.28400        -8.65100
H          -9.17000       -20.37900       -10.99100
H         -10.23500       -21.36100       -12.00500
H          -8.06000       -21.45500       -12.96000
H          -9.33000       -23.84400       -12.20400
H          -8.01700       -24.12500       -10.28000
H          -7.01000       -25.03600       -11.42500
H          -5.65500       -23.13900       -11.97000
H          -2.30400       -23.38000        -6.62000
H          -3.73900       -23.61500        -5.65300
H          -5.96700       -23.60900        -6.58900
H          -7.23400       -23.34300        -8.58600
P          -7.93300       -25.20800       -14.31500
O          -7.89400       -25.02700       -15.78900
O          -9.06300       -25.95700       -13.71500
O          -6.56400       -25.90900       -13.86100
C          -5.32400       -25.51900       -14.43200
C          -4.14200       -26.23200       -13.75200
O          -3.99400       -25.70800       -12.43400
C          -4.32800       -27.76500       -13.64300
O          -3.13400       -28.49500       -13.89400
C          -4.72200       -27.88800       -12.18500
C          -3.78000       -26.82900       -11.59200
N          -3.99400       -26.52400       -10.15300
C          -2.85800       -26.35200        -9.34000
O          -1.72400       -26.20100        -9.77000
N          -3.05500       -26.40800        -7.98200
C          -4.22600       -26.70800        -7.33300
O          -4.24000       -26.75200        -6.09600
C          -5.35700       -26.92000        -8.24000
C          -6.68600       -27.44500        -7.76000
C          -5.21800       -26.75700        -9.58500
H          -5.19400       -24.44100       -14.32900
H          -5.32300       -25.77400       -15.49200
H          -3.23400       -26.01400       -14.31400
H          -5.13600       -28.12600       -14.28100
H          -5.77500       -27.63400       -12.08300
H          -4.52300       -28.88400       -11.79400
H          -2.75500       -27.17600       -11.73200
H          -2.25900       -26.20400        -7.40300
H          -7.35500       -27.67300        -8.59100
H          -6.52300       -28.35100        -7.17500
H          -7.15300       -26.69900        -7.11700
H          -6.08100       -26.92000       -10.20800
P          -2.73800       -28.90600       -15.37800
O          -2.41400       -27.67000       -16.13800
O          -3.77700       -29.81700       -15.91500
O          -1.40400       -29.76500       -15.12900
C          -0.11900       -29.16300       -14.96200
C           0.79700       -29.95300       -14.00900
O           0.44500       -29.59100       -12.68000
C           0.66400       -31.49600       -14.13800
O           1.91100       -32.14600       -13.98100
C          -0.26600       -31.83000       -12.97800
C           0.15500       -30.77400       -11.95400
N          -0.87200       -30.49700       -10.92400
C          -2.24200       -30.41800       -11.06300
N          -2.87800       -30.19600        -9.93100
C          -1.84100       -30.15000        -8.99100
C          -1.77500       -29.99000        -7.58300
N          -2.82000       -29.84000        -6.79600
N          -0.60600       -30.00300        -6.93900
C           0.50100       -30.17600        -7.64400
N           0.60500       -30.35900        -8.95700
C          -0.61800       -30.33700        -9.58400
H          -0.23200       -28.15100       -14.57000
H           0.35700       -29.09700       -15.94000
H           1.83000       -29.65500       -14.19400
H           0.22200       -31.78700       -15.09100
H           2.28700       -31.88800       -13.13600
H          -1.30300       -31.69800       -13.28500
H          -0.10500       -32.84100       -12.60000
H           1.07400       -31.11300       -11.47400
H          -2.74900       -30.51400       -12.01100
H          -2.69300       -29.75200        -5.80000
H          -3.75000       -29.82000        -7.19000
H           1.42600       -30.17800        -7.08600
O           1.53700       -27.49300         1.59200
C           2.46100       -28.54100         1.87600
C           3.30400       -28.90400         0.64500
O           2.48000       -29.52000        -0.34500