%chk=1k2k_05_hmin.chk
%nprocshared=16
%mem=32GB
#p  ub3lyp genecp scrf=(cpcm,solvent=thf) nosymm 
empiricaldispersion=gd3bj pop=hirshfeld
 
title

0  1
O           1.08600        -6.06500        -2.22400
C           2.43700        -6.25000        -2.58800
C           3.39500        -5.40100        -1.74100
O           3.22900        -4.01200        -2.02800
C           3.10700        -5.57400        -0.21800
O           4.38700        -5.58800         0.39000
C           2.28400        -4.30600         0.07700
C           2.95800        -3.28500        -0.82900
N           2.10400        -2.10100        -1.05400
C           2.35300        -0.88100        -0.43400
O           3.25300        -0.75100         0.39200
N           1.58302         0.19601        -0.77403
C           0.56778         0.04885        -1.63602
N          -0.13887         1.12410        -1.96680
C           0.26607        -1.21398        -2.24308
C           1.08000        -2.24300        -1.91600
H           2.54400        -6.00600        -3.65000
H           2.67300        -7.31100        -2.45700
H           4.42600        -5.67200        -1.99900
H           2.57200        -6.49900         0.01700
H           1.23500        -4.47100        -0.18900
H           2.33000        -4.01300         1.12700
H           3.92300        -2.97700        -0.40600
H           0.06167         2.07223        -1.58363
H          -0.94021         1.09569        -2.58454
H          -0.55300        -1.32900        -2.94000
H           0.91000        -3.20900        -2.36900
H           0.81300        -5.19700        -2.57300
P           4.72900        -6.52000         1.65400
O           5.29400        -7.80200         1.18100
O           3.51700        -6.71600         2.47800
O           5.82500        -5.77100         2.54100
C           7.13900        -5.53700         2.06600
C           7.75100        -4.38600         2.87300
O           6.83400        -3.31300         2.75600
C           7.89600        -4.72700         4.37400
O           9.08600        -4.11800         4.85000
C           6.65400        -4.08100         4.99700
C           6.33600        -2.94900         4.02600
N           4.87000        -2.71400         3.91702
C           3.85200        -3.64000         3.81100
N           2.68800        -3.12400         3.53700
C           2.93800        -1.76200         3.46100
C           2.06100        -0.68602         3.14099
O           0.90502        -0.74799         2.72504
N           2.65301         0.55200         3.32299
C           3.96595         0.73704         3.67695
N           4.39801         1.97894         3.85808
N           4.82496        -0.26601         3.87904
C           4.25200        -1.49400         3.75902
H           7.08400        -5.25600         1.00900
H           7.73200        -6.45100         2.16100
H           8.70800        -4.09000         2.43000
H           7.96300        -5.80200         4.56300
H           5.86600        -4.83700         5.04700
H           6.77700        -3.70900         6.01300
H           6.80700        -2.01200         4.32900
H           4.02800        -4.69400         3.95400
H           2.01338         1.40546         3.13771
H           3.76620         2.80044         3.78327
H           5.33419         2.16419         4.19729
P           9.50300        -4.11500         6.40200
O          10.96600        -3.93900         6.52600
O           9.01400        -5.34300         7.06600
O           8.76000        -2.82400         7.00900
C           9.00700        -1.56300         6.42100
C           8.04802        -0.43300         6.81594
O           6.69700        -0.52192         6.43096
C           8.06000        -0.00201         8.29900
O           8.41400         1.36900         8.36400
C           6.60503        -0.22796         8.73900
C           5.92293         0.16697         7.40897
N           4.53701        -0.31802         7.30101
C           3.49000         0.57400         7.09600
O           3.60500         1.79300         7.18300
N           2.27200         0.00800         6.78300
C           2.00300        -1.34300         6.69400
O           0.88400        -1.71600         6.35500
C           3.14000        -2.20600         6.96800
C           2.96500        -3.71300         6.96700
C           4.35100        -1.66300         7.23900
H           8.96300        -1.67200         5.33300
H          10.03000        -1.26800         6.68100
H           8.42700         0.41999         6.23299
H           8.77000        -0.58700         8.89100
H           6.45700        -1.28100         8.99900
H           6.27600         0.40800         9.56400
H           5.97403         1.24700         7.22302
H           1.47525         0.71536         6.55240
H           2.54900        -4.03200         7.92800
H           2.27200        -4.02800         6.18200
H           3.91400        -4.23500         6.81400
H           5.21000        -2.30300         7.41300
P           8.77000         2.10500         9.74600
O          10.10900         2.72500         9.64700
O           8.67500         1.14500        10.86800
O           7.67600         3.25400         9.95200
C           7.70100         4.42300         9.15200
C           6.45300         5.28000         9.39100
O           5.31800         4.47900         9.07200
C           6.32700         5.73800        10.86000
O           6.20800         7.14500        11.00700
C           5.06400         5.02000        11.35200
C           4.33200         4.58100        10.08200
N           3.61300         3.30300        10.28500
C           4.05100         2.18200        10.93600
N           3.27300         1.14100        10.82900
C           2.19700         1.64000        10.10500
C           1.00400         1.05900         9.65001
N           0.77500        -0.24700         9.77098
N           0.07600         1.83800         9.07300
C           0.33100         3.13800         8.95100
N           1.43300         3.80000         9.28100
C           2.35300         2.97600         9.84300
H           7.73500         4.11500         8.10100
H           8.60400         4.99900         9.37900
H           6.47100         6.14200         8.71500
H           7.20200         5.42700        11.43900
H           5.37700         4.18200        11.98100
H           4.41500         5.63000        11.97100
H           3.59800         5.33300         9.77500
H           5.02115         2.16554        11.44924
H          -0.11328        -0.68242         9.45058
H           1.32330        -0.82020        10.40889
H          -0.47300         3.74000         8.53800
P           6.16700         7.83600        12.47000
O           6.52200         9.26700        12.34500
O           7.07400         7.11100        13.38700
O           4.65600         7.72200        13.00900
C           3.64800         8.50600        12.40700
C           2.26500         7.83900        12.29800
O           2.09100         6.56100        11.75800
C           1.12500         8.20300        13.25600
O           0.40800         9.34200        12.80900
C           0.29000         6.90100        13.30300
C           0.75600         6.16500        12.03700
N           0.79800         4.73200        12.35199
C          -0.26902         3.91202        12.02102
O          -1.23408         4.33395        11.38897
N          -0.23300         2.61101        12.41305
C           0.76495         2.16701        13.18403
N           0.79103         0.87301        13.47000
C           1.81203         3.03199        13.63995
C           1.79600         4.30200        13.17200
H           3.98200         8.74900        11.39000
H           3.56900         9.45100        12.95400
H           1.93500         8.42100        11.41800
H           1.54900         8.38900        14.24700
H           0.55300         6.37100        14.22400
H          -0.79000         7.07700        13.29800
H           0.11900         6.39700        11.17400
H           0.04185         0.23808        13.12675
H           1.47962         0.45136        14.11084
H           2.58400         2.67900        14.31000
H           2.56700         4.99900        13.48600
P          -0.14800        10.45500        13.83200
O          -0.17600        11.76200        13.13900
O           0.70100        10.49100        15.04300
O          -1.64300        10.07700        14.25600
C          -2.70600        10.31100        13.35400
C          -3.98700         9.60400        13.80100
O          -3.67500         8.25400        14.05600
C          -4.62400        10.17300        15.08600
O          -6.00200        10.39400        14.87200
C          -4.43400         9.11800        16.19600
C          -4.06700         7.86700        15.36000
N          -2.93200         7.06700        15.88800
C          -1.76400         7.46200        16.51300
N          -0.90200         6.49200        16.67300
C          -1.51499         5.38500        16.09199
C          -1.05600         4.04200        15.92000
O           0.02400         3.55495        16.24702
N          -1.99299         3.22601        15.30097
C          -3.19804         3.66996        14.81611
N          -4.00000         2.79706        14.21779
N          -3.62801         4.92699        14.95002
C          -2.74900         5.73300        15.60400
H          -2.40900         9.91600        12.37600
H          -2.87800        11.38800        13.25500
H          -4.70100         9.64300        12.96900
H          -4.18800        11.13500        15.37400
H          -6.41000         9.54200        14.61900
H          -3.64000         9.42400        16.88100
H          -5.34200         8.94200        16.78200
H          -4.93400         7.20000        15.28800
H          -1.60000         8.49000        16.81100
H          -1.70810         2.20704        15.13126
H          -3.73733         1.80692        14.07576
H          -4.92512         3.06405        13.87065
O          -2.82300        -5.61400        16.85200
C          -4.19300        -5.51700        17.17500
C          -4.90800        -4.44200        16.34500
O          -4.38900        -3.15200        16.66200
C          -4.67800        -4.65300        14.81700
O          -5.90900        -4.29000        14.21500
C          -3.53300        -3.65900        14.55300
C          -3.89800        -2.51200        15.48600
N          -2.74199        -1.63401        15.75498
C          -2.61995        -0.37602        15.17493
O          -3.43505         0.03395        14.35211
N          -1.57502         0.42001        15.55104
C          -0.65600        -0.04201        16.41102
N           0.32898         0.77106        16.77797
C          -0.74099        -1.35600        16.97799
C          -1.81500        -2.09400        16.61500
H          -4.27100        -5.27300        18.24000
H          -4.66000        -6.49200        17.00200
H          -5.97300        -4.44800        16.60400
H          -4.42400        -5.68600        14.55900
H          -2.57200        -4.11700        14.80900
H          -3.49100        -3.33800        13.51200
H          -4.72500        -1.92700        15.06200
H           0.38353         1.75412        16.44435
H           1.11286         0.44853        17.32713
H           0.00200        -1.72600        17.67100
H          -1.93800        -3.09000        17.02800
H          -2.44700        -6.31200        17.42400
P          -6.49500        -5.05100        12.92600
O          -7.40300        -6.13200        13.36400
O          -5.38500        -5.55900        12.09300
O          -7.32900        -3.99700        12.06500
C          -8.52500        -3.41200        12.55000
C          -8.77700        -2.10800        11.78300
O          -7.59100        -1.34800        11.93000
C          -9.00800        -2.34500        10.27300
O          -9.97100        -1.40500         9.82400
C          -7.63100        -2.06300         9.66400
C          -7.00400        -1.10200        10.67000
N          -5.53400        -1.30200        10.77700
C          -4.82400        -2.48400        10.84500
N          -3.56200        -2.33300        11.12900
C          -3.41100        -0.95900        11.25201
C          -2.26300        -0.19196        11.60304
O          -1.17601        -0.59704        12.01000
N          -2.47402         1.16899        11.46703
C          -3.67799         1.73499        11.12797
N          -3.73490         3.05406        10.99194
N          -4.78798         1.02804        10.89697
C          -4.59202        -0.31601        10.97094
H          -8.39900        -3.19300        13.61600
H          -9.35400        -4.11500        12.42700
H          -9.61100        -1.56500        12.24100
H          -9.38100        -3.34900        10.05100
H          -7.09300        -3.01100         9.58500
H          -7.63700        -1.63800         8.66100
H          -7.18600        -0.06000        10.40000
H          -5.29500        -3.43800        10.66800
H          -1.62585         1.79599        11.67390
H          -2.89413         3.65436        11.07887
H          -4.56909         3.50614        10.63755
P         -10.36400        -1.23100         8.27400
O         -11.71500        -0.63900         8.16500
O         -10.24600        -2.52600         7.56900
O          -9.27900        -0.18900         7.70500
C          -9.15600         1.06999         8.33399
C          -7.91102         1.88899         7.97206
O          -6.64391         1.40295         8.34713
C          -7.79200         2.35900         6.50500
O          -7.73500         3.77500         6.49000
C          -6.46302         1.73805         6.05201
C          -5.69999         1.87600         7.39001
N          -4.51202         1.00997         7.47297
C          -3.25400         1.55600         7.70200
O          -3.01500         2.75900         7.65800
N          -2.25000         0.65500         7.98901
C          -2.37899        -0.71900         8.02999
O          -1.41601        -1.40800         8.34802
C          -3.71500        -1.21000         7.73400
C          -3.97900        -2.70300         7.68400
C          -4.72000        -0.33400         7.49000
H          -9.15100         0.91800         9.41800
H         -10.05000         1.65500         8.08900
H          -8.03098         2.79402         8.58597
H          -8.63800         2.02400         5.89700
H          -6.62400         0.69600         5.75700
H          -5.96100         2.27800         5.24600
H          -5.44101         2.91800         7.61299
H          -1.29305         1.09116         8.22013
H          -5.03900        -2.93700         7.82500
H          -3.66800        -3.09500         6.71000
H          -3.40900        -3.23000         8.45400
H          -5.72600        -0.69400         7.30000
P          -7.85900         4.62900         5.13700
O          -8.96200         5.60600         5.26500
O          -8.04100         3.72200         3.98200
O          -6.47900         5.42000         4.96200
C          -6.16900         6.51900         5.80100
C          -4.72500         6.98700         5.58400
O          -3.87100         5.88300         5.87000
C          -4.46600         7.43700         4.13000
O          -3.94600         8.75500         4.02800
C          -3.46100         6.40300         3.60800
C          -2.89300         5.72900         4.85900
N          -2.57200         4.30600         4.60900
C          -3.31100         3.38100         3.92300
N          -2.86500         2.15800         3.99100
C          -1.69500         2.30100         4.72500
C          -0.72100         1.38600         5.15300
N          -0.87600         0.07500         4.98600
N           0.38900         1.84500         5.75100
C           0.51800         3.15900         5.92000
N          -0.34600         4.12000         5.61800
C          -1.46100         3.61500         5.03400
H          -6.29500         6.19900         6.84100
H          -6.86600         7.33800         5.59800
H          -4.49700         7.79500         6.28800
H          -5.39100         7.41100         3.54500
H          -3.99800         5.71200         2.95300
H          -2.66000         6.82100         3.00700
H          -1.97500         6.22700         5.18700
H          -4.23100         3.65200         3.42100
H          -0.18100        -0.57900         5.31900
H          -1.67900        -0.29700         4.49700
H           1.45900         3.49000         6.35000
P          -3.70200         9.45200         2.58900
O          -3.63000        10.92000         2.76300
O          -4.77500         9.04900         1.65400
O          -2.28500         8.92600         2.03800
C          -1.09600         9.36800         2.65900
C           0.03600         8.32800         2.74100
O          -0.16800         7.03700         3.23800
C           1.23700         8.37900         1.78900
O           2.25000         9.24800         2.26800
C           1.66200         6.89300         1.69700
C           0.99700         6.28300         2.94000
N           0.54600         4.93300         2.57900
C           1.33000         3.83100         2.87700
O           2.37200         3.93600         3.51800
N           0.92401         2.60900         2.43999
C          -0.15498         2.49699         1.65902
N          -0.54903         1.27602         1.32792
C          -0.90702         3.64100         1.23802
C          -0.52900         4.83700         1.74900
H          -1.35000         9.66600         3.68500
H          -0.74600        10.26700         2.14000
H           0.51500         8.76200         3.63700
H           0.88800         8.71000         0.80600
H           1.26400         6.49100         0.76000
H           2.74700         6.75000         1.70300
H           1.67000         6.29300         3.80800
H          -0.04105         0.44348         1.67740
H          -1.46901         1.07055         0.91934
H          -1.74400         3.54800         0.56000
H          -1.06500         5.73600         1.46300
P           3.11400        10.17800         1.27500
O           3.52000        11.39800         2.00600
O           2.31900        10.49600         0.06900
O           4.43400         9.39000         0.83500
C           5.51400         9.27300         1.74000
C           6.53400         8.23500         1.26800
O           5.84100         7.04500         0.96900
C           7.31900         8.63300         0.00100
O           8.70100         8.44000         0.21900
C           6.84200         7.71200        -1.14100
C           6.12100         6.59600        -0.34500
N           4.80800         6.17400        -0.89900
C           3.81000         6.90800        -1.51100
N           2.70600         6.23500        -1.69900
C           2.96798         4.98102        -1.15395
C           2.13905         3.82303        -1.02414
O           0.96501         3.68095        -1.36207
N           2.79598         2.75200        -0.43596
C           4.07402         2.81301         0.06099
N           4.58704         1.72600         0.62505
N           4.84898         3.89501        -0.03196
C           4.24600         4.94100        -0.65800
H           5.10800         8.95300         2.70600
H           5.99400        10.24800         1.87200
H           7.22100         8.03300         2.09900
H           7.17700         9.68600        -0.26500
H           8.97000         9.04000         0.94300
H           6.17700         8.25400        -1.81800
H           7.66600         7.29800        -1.73000
H           6.75700         5.70600        -0.29000
H           3.95300         7.94700        -1.77700
H           2.22857         1.84976        -0.30913
H           4.05107         0.84816         0.72849
H           5.54819         1.70479         0.97837
H           1.65732        10.48850        14.95901
H           7.44426         9.53251        12.32181
H           9.47385         0.79888        11.27252
H          11.56193        -4.55427         6.09251
H           6.24571        -7.92012         1.13742
H           4.45121        11.59817         2.12594
H          -2.77625        11.35594         2.81467
H          -8.76609         6.53783         5.38708
H         -11.81508         0.29999         7.99211
H          -7.04183        -6.95637        13.69802

